EDIFFG = -0.02
POTIM = 1
ISIF = 1
MD_ALGO = 0
NSW = 250
IBRION=3
IOPT=0
MAXMOVE=0.1
POTENTIAL=OCP
ICHAIN=0
IMAGES=5
