EDIFFG = -0.01
ISIF = 1
MD_ALGO = 0
NSW = 500
IBRION=0
IOPT=0
MAXMOVE=0.1
POTENTIAL=EMT
POTIM=5.0
