EDIFFG = -0.01
NSW = 5
IBRION=0
IOPT=0
MAXMOVE=0.1
POTENTIAL=UMA
#METHOD=MLVASP
POTIM=5.0

MD_ALGO = 1
ISIF = 2
TEBEG = 400

ANDERSEN_PROB = 0.0

#NHC_PERIOD = 50
#NHC_NCHAINS = 2
#NHC_NRESPA = 1

#LANGEVIN_GAMMA = 0.3
#LANGEVIN_GAMMA_L = 0.0
