EDIFFG = -0.01
NSW = 100
IBRION=0
IOPT=0
MAXMOVE=0.1
POTENTIAL=EMT
#METHOD=MLVASP
POTIM=5.0

MDALGO = 1
ISIF = 2
TEBEG = 400

ANDERSEN_PROB = 0.0

NBLOCK = 10

#NHC_PERIOD = 50
#NHC_NCHAINS = 2
#NHC_NRESPA = 1

#LANGEVIN_GAMMA = 0.3
#LANGEVIN_GAMMA_L = 0.0
