Cu
 1.0000000000000000
    10.8300000000000001    0.0000000000000000    0.0000000000000000
     0.0000000000000000   10.8300000000000001    0.0000000000000000
     0.0000000000000000    0.0000000000000000   10.8300000000000001
 Cu 
 108
Cartesian
  0.0000000000000000  0.0000000000000000  0.0000000000000000
  1.8049999999999999  1.8049999999999999  0.0000000000000000
  1.8049999999999999  0.0000000000000000  1.8049999999999999
  0.0000000000000000  1.8049999999999999  1.8049999999999999
  3.6099999999999999  0.0000000000000000  0.0000000000000000
  5.4150000000000000  1.8049999999999999  0.0000000000000000
  5.4150000000000000  0.0000000000000000  1.8049999999999999
  3.6099999999999999  1.8049999999999999  1.8049999999999999
  7.2199999999999998  0.0000000000000000  0.0000000000000000
  9.0250000000000004  1.8049999999999999  0.0000000000000000
  9.0250000000000004  0.0000000000000000  1.8049999999999999
  7.2199999999999998  1.8049999999999999  1.8049999999999999
  0.0000000000000000  3.6099999999999999  0.0000000000000000
  1.8049999999999999  5.4150000000000000  0.0000000000000000
  1.8049999999999999  3.6099999999999999  1.8049999999999999
  0.0000000000000000  5.4150000000000000  1.8049999999999999
  3.6099999999999999  3.6099999999999999  0.0000000000000000
  5.4150000000000000  5.4150000000000000  0.0000000000000000
  5.4150000000000000  3.6099999999999999  1.8049999999999999
  3.6099999999999999  5.4150000000000000  1.8049999999999999
  7.2199999999999998  3.6099999999999999  0.0000000000000000
  9.0250000000000004  5.4150000000000000  0.0000000000000000
  9.0250000000000004  3.6099999999999999  1.8049999999999999
  7.2199999999999998  5.4150000000000000  1.8049999999999999
  0.0000000000000000  7.2199999999999998  0.0000000000000000
  1.8049999999999999  9.0250000000000004  0.0000000000000000
  1.8049999999999999  7.2199999999999998  1.8049999999999999
  0.0000000000000000  9.0250000000000004  1.8049999999999999
  3.6099999999999999  7.2199999999999998  0.0000000000000000
  5.4150000000000000  9.0250000000000004  0.0000000000000000
  5.4150000000000000  7.2199999999999998  1.8049999999999999
  3.6099999999999999  9.0250000000000004  1.8049999999999999
  7.2199999999999998  7.2199999999999998  0.0000000000000000
  9.0250000000000004  9.0250000000000004  0.0000000000000000
  9.0250000000000004  7.2199999999999998  1.8049999999999999
  7.2199999999999998  9.0250000000000004  1.8049999999999999
  0.0000000000000000  0.0000000000000000  3.6099999999999999
  1.8049999999999999  1.8049999999999999  3.6099999999999999
  1.8049999999999999  0.0000000000000000  5.4150000000000000
  0.0000000000000000  1.8049999999999999  5.4150000000000000
  3.6099999999999999  0.0000000000000000  3.6099999999999999
  5.4150000000000000  1.8049999999999999  3.6099999999999999
  5.4150000000000000  0.0000000000000000  5.4150000000000000
  3.6099999999999999  1.8049999999999999  5.4150000000000000
  7.2199999999999998  0.0000000000000000  3.6099999999999999
  9.0250000000000004  1.8049999999999999  3.6099999999999999
  9.0250000000000004  0.0000000000000000  5.4150000000000000
  7.2199999999999998  1.8049999999999999  5.4150000000000000
  0.0000000000000000  3.6099999999999999  3.6099999999999999
  1.8049999999999999  5.4150000000000000  3.6099999999999999
  1.8049999999999999  3.6099999999999999  5.4150000000000000
  0.0000000000000000  5.4150000000000000  5.4150000000000000
  3.6099999999999999  3.6099999999999999  3.6099999999999999
  5.4150000000000000  5.4150000000000000  3.6099999999999999
  5.4150000000000000  3.6099999999999999  5.4150000000000000
  3.6099999999999999  5.4150000000000000  5.4150000000000000
  7.2199999999999998  3.6099999999999999  3.6099999999999999
  9.0250000000000004  5.4150000000000000  3.6099999999999999
  9.0250000000000004  3.6099999999999999  5.4150000000000000
  7.2199999999999998  5.4150000000000000  5.4150000000000000
  0.0000000000000000  7.2199999999999998  3.6099999999999999
  1.8049999999999999  9.0250000000000004  3.6099999999999999
  1.8049999999999999  7.2199999999999998  5.4150000000000000
  0.0000000000000000  9.0250000000000004  5.4150000000000000
  3.6099999999999999  7.2199999999999998  3.6099999999999999
  5.4150000000000000  9.0250000000000004  3.6099999999999999
  5.4150000000000000  7.2199999999999998  5.4150000000000000
  3.6099999999999999  9.0250000000000004  5.4150000000000000
  7.2199999999999998  7.2199999999999998  3.6099999999999999
  9.0250000000000004  9.0250000000000004  3.6099999999999999
  9.0250000000000004  7.2199999999999998  5.4150000000000000
  7.2199999999999998  9.0250000000000004  5.4150000000000000
  0.0000000000000000  0.0000000000000000  7.2199999999999998
  1.8049999999999999  1.8049999999999999  7.2199999999999998
  1.8049999999999999  0.0000000000000000  9.0250000000000004
  0.0000000000000000  1.8049999999999999  9.0250000000000004
  3.6099999999999999  0.0000000000000000  7.2199999999999998
  5.4150000000000000  1.8049999999999999  7.2199999999999998
  5.4150000000000000  0.0000000000000000  9.0250000000000004
  3.6099999999999999  1.8049999999999999  9.0250000000000004
  7.2199999999999998  0.0000000000000000  7.2199999999999998
  9.0250000000000004  1.8049999999999999  7.2199999999999998
  9.0250000000000004  0.0000000000000000  9.0250000000000004
  7.2199999999999998  1.8049999999999999  9.0250000000000004
  0.0000000000000000  3.6099999999999999  7.2199999999999998
  1.8049999999999999  5.4150000000000000  7.2199999999999998
  1.8049999999999999  3.6099999999999999  9.0250000000000004
  0.0000000000000000  5.4150000000000000  9.0250000000000004
  3.6099999999999999  3.6099999999999999  7.2199999999999998
  5.4150000000000000  5.4150000000000000  7.2199999999999998
  5.4150000000000000  3.6099999999999999  9.0250000000000004
  3.6099999999999999  5.4150000000000000  9.0250000000000004
  7.2199999999999998  3.6099999999999999  7.2199999999999998
  9.0250000000000004  5.4150000000000000  7.2199999999999998
  9.0250000000000004  3.6099999999999999  9.0250000000000004
  7.2199999999999998  5.4150000000000000  9.0250000000000004
  0.0000000000000000  7.2199999999999998  7.2199999999999998
  1.8049999999999999  9.0250000000000004  7.2199999999999998
  1.8049999999999999  7.2199999999999998  9.0250000000000004
  0.0000000000000000  9.0250000000000004  9.0250000000000004
  3.6099999999999999  7.2199999999999998  7.2199999999999998
  5.4150000000000000  9.0250000000000004  7.2199999999999998
  5.4150000000000000  7.2199999999999998  9.0250000000000004
  3.6099999999999999  9.0250000000000004  9.0250000000000004
  7.2199999999999998  7.2199999999999998  7.2199999999999998
  9.0250000000000004  9.0250000000000004  7.2199999999999998
  9.0250000000000004  7.2199999999999998  9.0250000000000004
  7.2199999999999998  9.0250000000000004  9.0250000000000004
