O 
 1.0000000000000000
     8.0000000000000000    0.0000000000000000    0.0000000000000000
     0.0000000000000000    8.0000000000000000    0.0000000000000000
     0.0000000000000000    0.0000000000000000    8.0000000000000000
 O  
   2
Cartesian
  4.0000000000000000  4.0000000000000000  3.4498533333493873
  4.0000000000000000  4.0000000000000000  4.5501466666506127
