O 
 1.0000000000000000
     8.0000000000000000    0.0000000000000000    0.0000000000000000
     0.0000000000000000    8.0000000000000000    0.0000000000000000
     0.0000000000000000    0.0000000000000000    8.0000000000000000
 O  
   2
Cartesian
  3.9992738828708227  3.9991089616988198  3.9863535733433575
  3.9994663815887495  3.9990577752892711  5.2173160878879914
