EDIFFG = -0.01
POTIM = 1
ISIF = 1
MD_ALGO = 0
NSW = 100
IBRION=1
