O dimer in a box
   1.00000000000000
     8.0000000000000000    0.0000000000000000    0.0000000000000000
     0.0000000000000000    8.0000000000000000    0.0000000000000000
     0.0000000000000000    0.0000000000000000    8.0000000000000000
   O
     2
Direct
  0.5000000000000000  0.5000000000000000  0.4228375930896254
  0.5000000000000000  0.5000000000000000  0.5771624069103747
