Al 
 1.0000000000000000
    14.3189130000000002    0.0000000000000000    0.0000000000000000
     0.0000000000000000   14.3189130000000002    0.0000000000000000
     0.0000000000000000    0.0000000000000000   20.0625000000000000
  51
Selective dynamics
Cartesian
  1.4318910000000031  1.4318910000000031 15.0000000000000018   F   F   F
  4.2956740000000018  1.4318910000000031 15.0000000000000018   F   F   F
  7.1594560000000014  1.4318910000000031 15.0000000000000018   F   F   F
 10.0232390000000002  1.4318910000000031 15.0000000000000018   F   F   F
 12.8870210000000007  1.4318910000000031 15.0000000000000018   F   F   F
  1.4318910000000031  4.2956740000000018 15.0000000000000018   F   F   F
  4.2956740000000018  4.2956740000000018 15.0000000000000018   F   F   F
  7.1594560000000014  4.2956740000000018 15.0000000000000018   F   F   F
 10.0232390000000002  4.2956740000000018 15.0000000000000018   F   F   F
 12.8870210000000007  4.2956740000000018 15.0000000000000018   F   F   F
  1.4318910000000031  7.1594560000000014 15.0000000000000018   F   F   F
  4.2956740000000018  7.1594560000000014 15.0000000000000018   F   F   F
  7.1594560000000014  7.1594560000000014 15.0000000000000018   F   F   F
 10.0232390000000002  7.1594560000000014 15.0000000000000018   F   F   F
 12.8870210000000007  7.1594560000000014 15.0000000000000018   F   F   F
  1.4318910000000031 10.0232390000000002 15.0000000000000018   F   F   F
  4.2956740000000018 10.0232390000000002 15.0000000000000018   F   F   F
  7.1594560000000014 10.0232390000000002 15.0000000000000018   F   F   F
 10.0232390000000002 10.0232390000000002 15.0000000000000018   F   F   F
 12.8870210000000007 10.0232390000000002 15.0000000000000018   F   F   F
  1.4318910000000031 12.8870210000000007 15.0000000000000018   F   F   F
  4.2956740000000018 12.8870210000000007 15.0000000000000018   F   F   F
  7.1594560000000014 12.8870210000000007 15.0000000000000018   F   F   F
 10.0232390000000002 12.8870210000000007 15.0000000000000018   F   F   F
 12.8870210000000007 12.8870210000000007 15.0000000000000018   F   F   F
  0.0021774963252425  0.0001771359112419 17.1548372871308317   T   T   T
  2.8615806272155138 -0.0001137345859552 17.1548011628461445   T   T   T
  5.7251985460293771  0.0006077690572601 17.1541875808851714   T   T   T
  8.5913721615556060 -0.0000437767409368 17.1580944539633578   T   T   T
 11.4574907793378351 -0.0006354056251056 17.1542200268424665   T   T   T
 -0.0012699386815177  2.8628557920587352 17.1525601195071538   T   T   T
  2.8650976134954664  2.8629794707962684 17.1524419937040946   T   T   T
  5.7299916544891811  2.8396949154176241 17.1525432730778320   T   T   T
  8.5926239285038193  2.8126961258201861 17.1488902642349785   T   T   T
 11.4536425061520397  2.8394005378027014 17.1511864344755445   T   T   T
  0.0246342993198562  5.7288263172910492 17.1542229405111399   T   T   T
  2.8374513626080970  5.7274749262316860 17.1529075901074322   T   T   T
  5.6538292431102306  5.6790052155072948 17.1334367248599619   T   T   T
  8.5913356339577938  5.6307523995252220 17.1195710167820394   T   T   T
 11.5289124022746101  5.6806046131750403 17.1347509917260830   T   T   T
  0.0263110032634839  8.5914203381887191 17.1529321841663034   T   T   T
  2.8391047136094310  8.5901554732371537 17.1542150700660940   T   T   T
  5.6537788032277172  8.6383719715080716 17.1345906468983529   T   T   T
  9.3556682167599359  9.3556403829828483 17.8983513370081120   T   T   T
 11.5288098650424757  8.6398012226113252 17.1333220969380093   T   T   T
 -0.0013501485728436 11.4560025578592075 17.1524582575586209   T   T   T
  2.8650148579137937 11.4561327484870823 17.1525090229405990   T   T   T
  5.7289843574040331 11.4795234176047618 17.1511467738661381   T   T   T
  8.5900954031304106 11.5060217755710497 17.1487804235029913   T   T   T
 11.4526526831026345 11.4792616036327928 17.1525181182464834   T   T   T
  7.8269657216501560  7.9237783621411779 17.8984024912411570   T   T   T
