Al 
 1.0000000000000000
    14.3189130000000002    0.0000000000000000    0.0000000000000000
     0.0000000000000000   14.3189130000000002    0.0000000000000000
     0.0000000000000000    0.0000000000000000   20.0625000000000000
  51
Selective dynamics
Cartesian
  1.4318910000000031  1.4318910000000031 15.0000000000000018   F   F   F
  4.2956740000000018  1.4318910000000031 15.0000000000000018   F   F   F
  7.1594560000000014  1.4318910000000031 15.0000000000000018   F   F   F
 10.0232390000000002  1.4318910000000031 15.0000000000000018   F   F   F
 12.8870210000000007  1.4318910000000031 15.0000000000000018   F   F   F
  1.4318910000000031  4.2956740000000018 15.0000000000000018   F   F   F
  4.2956740000000018  4.2956740000000018 15.0000000000000018   F   F   F
  7.1594560000000014  4.2956740000000018 15.0000000000000018   F   F   F
 10.0232390000000002  4.2956740000000018 15.0000000000000018   F   F   F
 12.8870210000000007  4.2956740000000018 15.0000000000000018   F   F   F
  1.4318910000000031  7.1594560000000014 15.0000000000000018   F   F   F
  4.2956740000000018  7.1594560000000014 15.0000000000000018   F   F   F
  7.1594560000000014  7.1594560000000014 15.0000000000000018   F   F   F
 10.0232390000000002  7.1594560000000014 15.0000000000000018   F   F   F
 12.8870210000000007  7.1594560000000014 15.0000000000000018   F   F   F
  1.4318910000000031 10.0232390000000002 15.0000000000000018   F   F   F
  4.2956740000000018 10.0232390000000002 15.0000000000000018   F   F   F
  7.1594560000000014 10.0232390000000002 15.0000000000000018   F   F   F
 10.0232390000000002 10.0232390000000002 15.0000000000000018   F   F   F
 12.8870210000000007 10.0232390000000002 15.0000000000000018   F   F   F
  1.4318910000000031 12.8870210000000007 15.0000000000000018   F   F   F
  4.2956740000000018 12.8870210000000007 15.0000000000000018   F   F   F
  7.1594560000000014 12.8870210000000007 15.0000000000000018   F   F   F
 10.0232390000000002 12.8870210000000007 15.0000000000000018   F   F   F
 12.8870210000000007 12.8870210000000007 15.0000000000000018   F   F   F
  0.0007062571713003  0.0001029741037017 17.1578721506368375   T   T   T
  2.8601227236732862 -0.0001960448127787 17.1517483239018631   T   T   T
  5.7266137984103844  0.0011734723104077 17.1568374089586690   T   T   T
  8.5915341740699507 -0.0010373025977541 17.1580772387412388   T   T   T
 11.4588902055936153 -0.0000431056277671 17.1515758282160071   T   T   T
 -0.0002724006450599  2.8606105805568505 17.1510389831486094   T   T   T
  2.8658694186325473  2.8654038163268147 17.1539355516678782   T   T   T
  5.7301440587128170  2.8217822770699779 17.1510544946922430   T   T   T
  8.5917498637541225  2.8125713646944419 17.1479828895640090   T   T   T
 11.4527792408672582  2.8572699442907661 17.1536159227421692   T   T   T
  0.0071158066543573  5.7278473612731453 17.1568426486985643   T   T   T
  2.8208173267331746  5.7275429335794055 17.1494048153076584   T   T   T
  5.6386081556480008  5.6467416407424826 17.1241603925291166   T   T   T
  8.6559414039454037  5.6309500641023913 17.1196153931804247   T   T   T
 11.5136350227718012  5.7136650916177585 17.1451386657496023   T   T   T
  0.0096776365235052  8.5915311652485293 17.1564393757614511   T   T   T
  2.8216207066333006  8.5891953634516405 17.1515685697153266   T   T   T
  5.6384414097786681  8.6713974039352966 17.1242002214485858   T   T   T
  8.9107063716368167  8.9106599849714136 17.3789794256458237   T   T   T
 11.5136206368834753  8.6075771026850756 17.1425779987729108   T   T   T
 -0.0006194409889136 11.4584408199795522 17.1509318072515100   T   T   T
  2.8660212509977709 11.4538455708516569 17.1540480652841651   T   T   T
  5.7281252101915792 11.4972967869558538 17.1487597583145011   T   T   T
  8.5892321212321718 11.5059112602119704 17.1496991478246983   T   T   T
 11.4528316650263555 11.4614229326788237 17.1539431237087037   T   T   T
  7.3819636829103796  7.4143329278167087 18.4177646604644671   T   T   T
