O 
 1.0000000000000000
     8.0000000000000000    0.0000000000000000    0.0000000000000000
     0.0000000000000000    8.0000000000000000    0.0000000000000000
     0.0000000000000000    0.0000000000000000    8.0000000000000000
 O  
   2
Cartesian
  3.9988755073372886  3.9989818616586490  3.9842310552984408
  3.9994775610582565  3.9984094263127758  5.2153368960974342
