O 
 1.0000000000000000
     8.0000000000000000    0.0000000000000000    0.0000000000000000
     0.0000000000000000    8.0000000000000000    0.0000000000000000
     0.0000000000000000    0.0000000000000000    8.0000000000000000
 O  
   2
Cartesian
  3.9985396857582112  3.9994062572281721  3.9842167285942738
  3.9996864501462772  3.9989274610552021  5.2153887795337752
