EDIFFG = -0.04
POTIM = 1
ISIF = 1
MD_ALGO = 0
NSW = 100
IBRION=1
IOPT=0
MAXMOVE=0.1
POTENTIAL=UMA
UMAMODEL=uma-m-1p1
UMAPOT=OMOL

