EDIFFG = -0.01
POTIM = 1
ISIF = 1
MD_ALGO = 0
NSW = 100
IBRION=1
IOPT=2
MAXSTEP=0.1
POTENTIAL=OCP
