EDIFFG = -0.04
POTIM = 1
ISIF = 1
MDALGO = 0
NSW = 100
IBRION=1
IOPT=0
MAXMOVE=0.1
POTENTIAL=UMA
UMAMODEL=S
UMAPOT=OMOL
DEVICE=cuda
