O 
 1.0000000000000000
     8.0000000000000000    0.0000000000000000    0.0000000000000000
     0.0000000000000000    8.0000000000000000    0.0000000000000000
     0.0000000000000000    0.0000000000000000    8.0000000000000000
 O  
   2
Cartesian
  4.0000000000000000  4.0000000000000000  3.3827007447170030
  4.0000000000000000  4.0000000000000000  5.8172992552829976
