H  N                                    
    1.000000000000000     
    10.0000000000000000    0.0000000000000000    0.0000000000000000
     0.0000000000000000   10.0000000000000000    0.0000000000000000
     0.0000000000000000    0.0000000000000000   10.0000000000000000
   H    N 
     3     1
Direct
     0.4799999999999969    0.5854048847583471    0.4829502814694280
     0.5626388523671366    0.4422960831628444    0.4829986286215018
     0.3973611476328642    0.4422960831628444    0.4829986286215018
     0.4799999999999969    0.4900030489159661    0.5211589612875756
 
  0.00000000E+00  0.00000000E+00  0.00000000E+00
  0.00000000E+00  0.00000000E+00  0.00000000E+00
  0.00000000E+00  0.00000000E+00  0.00000000E+00
  0.00000000E+00  0.00000000E+00  0.00000000E+00
