H  N 
 1.0000000000000000
    10.0000000000000000    0.0000000000000000    0.0000000000000000
     0.0000000000000000   10.0000000000000000    0.0000000000000000
     0.0000000000000000    0.0000000000000000   10.0000000000000000
 H   N  
   3   1
Cartesian
  4.7999999999999687  5.8540488475834929  4.8295028146942611
  5.6263885236713973  4.4229608316284406  4.8299862862150169
  3.9736114763286130  4.4229608316284406  4.8299862862150169
  4.7999999999999687  4.9000304891596489  5.2115896128757804
Cartesian
  0.0000000000000000  0.0000000000000000  0.0000000000000000
  0.0000000000000000  0.0000000000000000  0.0000000000000000
  0.0000000000000000  0.0000000000000000  0.0000000000000000
  0.0000000000000000  0.0000000000000000  0.0000000000000000
