Ag
 1.0000000000000000
    17.3524004103179017    0.0000000000000000    0.0000000000000000
     0.0000000000000000   15.0276195719747996    0.0000000000000000
     0.0000000000000000    0.0000000000000000   12.3613626009856006
 Ag 
  73
Selective dynamics
Cartesian
 17.3519860591601898  1.6646624613177332  1.2674161392609207   F   F   F
  2.8971185870756440  1.6633401840559601  1.2839403913000689   F   F   F
  5.7835345979547128  1.6660733488205259  1.2797833037518094   F   F   F
  8.6763869644603933  1.6713175171660357  1.2826657380641409   F   F   F
 11.5683676158757134  1.6667522807933577  1.2804492336188009   F   F   F
 14.4552506405447900  1.6640770520644770  1.2833557843326486   F   F   F
  1.4451850836480984  4.1665431424588935  1.2869790058543467   F   F   F
  4.3411352505084864  4.1684160218517201  1.2727092754489249   F   F   F
  7.2327337036314630  4.1712855846734485  1.2714849637612464   F   F   F
 10.1194219163489674  4.1719759488588348  1.2690171381559270   F   F   F
 13.0090454719434074  4.1696037534763724  1.2792549589911686   F   F   F
 15.9062288085694448  4.1674383168451126  1.2871926122637471   F   F   F
 17.3521242154967439  6.6684766520484589  1.3002920174906996   F   F   F
  2.8894191349654430  6.6722388997935713  1.2711753986761891   F   F   F
  5.7890283581129296  6.6773914740965408  1.3522302094586511   F   F   F
  8.6779475243402846  6.6632183380603660  1.3326153604953661   F   F   F
 11.5575302170112728  6.6814230071954990  1.3569710711774410   F   F   F
 14.4610018347400349  6.6726173558638795  1.2761647102278504   F   F   F
  1.4504204353434464  9.1837354720152931  1.2913301174418486   F   F   F
  4.3391570268301418  9.1833334335658101  1.3034187829848460   F   F   F
  7.2168189338170698  9.1856841403203244  1.3331467711577116   F   F   F
 10.1345728322021316  9.1830212924692507  1.3415917365885308   F   F   F
 13.0140799573655919  9.1827797588702413  1.2928461642549360   F   F   F
 15.9019026943627271  9.1852635116331793  1.2932739751851514   F   F   F
  0.0002039499994310 11.6870287115195861  1.2994831352422211   F   F   F
  2.8942310124095778 11.6896020609429243  1.2805424977353665   F   F   F
  5.7873950450380525 11.6866831670555467  1.2951119649593181   F   F   F
  8.6767216921271544 11.6966369187389443  1.3064271523394926   F   F   F
 11.5661680821143698 11.6872992516153626  1.2916970226557534   F   F   F
 14.4585661179929321 11.6897866894437037  1.2811352378816447   F   F   F
  1.4450530452603898 14.1966878024896204  1.2835180675712210   F   F   F
  4.3440154109998357 14.1956184818835460  1.2810087150688869   F   F   F
  7.2308513168671347 14.1931253355378839  1.2580596399689590   F   F   F
 10.1211173955461948 14.1942513838689059  1.2560936619380483   F   F   F
 13.0082062623537595 14.1960032608136544  1.2825220123402714   F   F   F
 15.9079851618173809 14.1969724231298056  1.2835248875784993   F   F   F
 17.3526689093934969  0.0036911030297788  3.8068874966645967   T   T   T
  2.8925946682308443  0.0021682309365961  3.8092804842538039   T   T   T
  5.7893809624273231  0.0041392931441588  3.7947158985613205   T   T   T
  8.6760672739524605  0.0028988333739265  3.7860900650690432   T   T   T
 11.5624378249028048  0.0054753748146886  3.7949349821651048   T   T   T
 14.4602130384801146  0.0042259145893330  3.8091349012905162   T   T   T
  1.4454949854431396  2.4988962254431191  3.8027973338051617   T   T   T
  4.3374923566219055  2.4973933832403774  3.8040374313447645   T   T   T
  7.2378093400861436  2.5171346101118610  3.7996967383599500   T   T   T
 10.1158481501181523  2.5191677028155568  3.7993652902342014   T   T   T
 13.0162587854087448  2.4994817405067362  3.8058929617508221   T   T   T
 15.9086403036030539  2.4996390482568995  3.8027285918199336   T   T   T
  0.0022801002793495  5.0005438367539146  3.8163466018619325   T   T   T
  2.8855498201571055  5.0009032936975082  3.7972053845383158   T   T   T
  5.7695074824656301  4.9947214761426233  3.8252660547338744   T   T   T
  8.6765794264369553  5.0464125049214008  3.9211812692633501   T   T   T
 11.5859736014893819  4.9975133904813394  3.8286332603719626   T   T   T
 14.4706706820616429  5.0022115861207892  3.8008384583278398   T   T   T
  1.4363064498145650  7.5122740515201523  3.8089671599606465   T   T   T
  4.2993169306987999  7.5184486838572262  3.8246167899499630   T   T   T
  7.1618123249966299  7.5184903989727454  3.7501466442572253   T   T   T
 10.1925236431480659  7.5187055443727662  3.7606318576655484   T   T   T
 13.0562853435784358  7.5202964161678567  3.8246487328689724   T   T   T
 15.9198997520674244  7.5137407626697952  3.8111286093428056   T   T   T
 17.3523556664071386 10.0249786658124176  3.8153198307112364   T   T   T
  2.8777275915482328 10.0310146258599566  3.8152079903014879   T   T   T
  5.7600816875613123 10.0388966012107357  3.8403433694372318   T   T   T
  8.6763857471097730  9.9934450412818663  3.9480540468733656   T   T   T
 11.5934913169033340 10.0397501849946664  3.8343069127362059   T   T   T
 14.4745003220961141 10.0324869144466682  3.8131112419225333   T   T   T
  1.4441172267149391 12.5319208616746831  3.8093748148514357   T   T   T
  4.3331425883615111 12.5368410443241611  3.8095338571218731   T   T   T
  7.2351486509372496 12.5201325381013699  3.8077742584216110   T   T   T
 10.1172596400872550 12.5198932172150545  3.8059726341549251   T   T   T
 13.0183534385595951 12.5397678322583523  3.8093627080772055   T   T   T
 15.9077656873970987 12.5325856848568247  3.8093839251152355   T   T   T
  8.6686846714801220  7.5718489309692654  6.0288429083971424   T   T   T
