Ag
    1.000000000000000     
  17.3524004103179017   0.0000000000000000   0.0000000000000000
   0.0000000000000000  15.0276195719747996   0.0000000000000000
   0.0000000000000000   0.0000000000000000  12.3613626009856006
Ag
73  
Selective dynamics
Direct
  0.9999761213925500  0.1107735295896220  0.1025304555955560 F F F
  0.1669577994150590  0.1106855397882140  0.1038672218221070 F F F
  0.3332988209813190  0.1108674158831920  0.1035309249523810 F F F
  0.5000107627358190  0.1112163845485480  0.1037641059054340 F F F
  0.6666724684958890  0.1109125948265090  0.1035847968343480 F F F
  0.8330404035599340  0.1107345740351210  0.1038199287374940 F F F
  0.0832844476542149  0.2772590244584800  0.1041130373241970 F F F
  0.2501749122805630  0.2773836536044240  0.1029586556539850 F F F
  0.4168145923679130  0.2775746061906260  0.1028596122291460 F F F
  0.5831713006306530  0.2776205458806800  0.1026599719722440 F F F
  0.7496971695171410  0.2774626901823040  0.1034881833244800 F F F
  0.9166587003785051  0.2773185930669300  0.1041303174911410 F F F
  0.9999840831922600  0.4437480347509320  0.1051900230955950 F F F
  0.1665140883475330  0.4439983902864240  0.1028345692710960 F F F
  0.3336154204158820  0.4443412639051160  0.1093916789845510 F F F
  0.5001006961077440  0.4433981247759750  0.1078048920261520 F F F
  0.6660479209630880  0.4446095388025240  0.1097752015679280 F F F
  0.8333718386386120  0.4440235743196300  0.1032381907578780 F F F
  0.0835861552895594  0.6111237663443490  0.1044650302013540 F F F
  0.2500609093972980  0.6110970130420340  0.1054429697645890 F F F
  0.4158974414586400  0.6112534387981730  0.1078478816770100 F F F
  0.5840444314652870  0.6110762418816340  0.1085310559922870 F F F
  0.7499873014471991  0.6110601692363390  0.1045876741898870 F F F
  0.9164093911126731  0.6112254484245060  0.1046222829093320 F F F
  0.0000117534170840  0.7777032586927390  0.1051245867618680 F F F
  0.1667913916214520  0.7778745000134960  0.1035923416430860 F F F
  0.3335212943563020  0.7776802647340230  0.1047709711918050 F F F
  0.5000300527279150  0.7783426285658810  0.1056863385137920 F F F
  0.6665457117527680  0.7777212615503760  0.1044947118170260 F F F
  0.8332314709263930  0.7778867859580459  0.1036402926793440 F F F
  0.0832768384252560  0.9447063611435310  0.1038330570020560 F F F
  0.2503408928033290  0.9446352041248860  0.1036300573341930 F F F
  0.4167061124619740  0.9444692998488480  0.1017735407153780 F F F
  0.5832690092563840  0.9445442317650860  0.1016144985373940 F F F
  0.7496488067794330  0.9446608089073510  0.1037524788924170 F F F
  0.9167599171097010  0.9447253009788670  0.1038336087217570 F F F
  0.9999632918346389  0.0003133093674776  0.2847194091380200 T T T
  0.1668009397669370  0.0001368717382704  0.2852347374692240 T T T
  0.3338727608953110  0.0002690695693133  0.2852211832617750 T T T
  0.4997733476274820  0.0003227666487220  0.2843587928384180 T T T
  0.6657663913639380  0.0004900141962239  0.2850907271451600 T T T
  0.8330979202112230  0.0003811180740740  0.2852231905419910 T T T
  0.0835534659213479  0.1665124149646290  0.2851889826737310 T T T
  0.2503906205685810  0.1666564667595760  0.2858308009194910 T T T
  0.4174167745291800  0.1679097376448480  0.2852749645479950 T T T
  0.5829102516116510  0.1680568590900010  0.2852019167366750 T T T
  0.7500250882390840  0.1666951912399600  0.2859768967573190 T T T
  0.9168848960799560  0.1665902165289240  0.2853748116357760 T T T
  0.0003160323084970  0.3328943758434590  0.2864620024543570 T T T
  0.1666580738911560  0.3331276231174410  0.2853117704673950 T T T
  0.3332665046273600  0.3320042584026200  0.2868502654941240 T T T
  0.5004850018659750  0.3354582790370420  0.2917599689189030 T T T
  0.6674338510205120  0.3321623017646120  0.2871511225574470 T T T
  0.8339521140336360  0.3332591496912510  0.2855650508149240 T T T
  0.0830870791176679  0.4998241221271800  0.2864597965163680 T T T
  0.2475022345150820  0.5003562071684020  0.2867610108925400 T T T
  0.4110868882265630  0.5013045206922730  0.2884918653860280 T T T
  0.5894710761318011  0.5016008154454210  0.2891210112713840 T T T
  0.7529476894583450  0.5007423723197770  0.2866885683878660 T T T
  0.9173102982297080  0.4999371232311350  0.2866002063315140 T T T
  0.9998760647354320  0.6665874452647960  0.2863012566700430 T T T
  0.1656083222376310  0.6673407723227950  0.2865759741482490 T T T
  0.3318021377657840  0.6682519981852340  0.2876189869716090 T T T
  0.4999475478904710  0.6672617650099970  0.2910402377874420 T T T
  0.6682462253831860  0.6687235495751550  0.2874095845241060 T T T
  0.8341631759346479  0.6676119717662770  0.2864106174739900 T T T
  0.0832519326571699  0.8335213455891970  0.2857317331620730 T T T
  0.2496323294107090  0.8340857210824379  0.2861195416074550 T T T
  0.4165505062148540  0.8338556059482660  0.2861422050291150 T T T
  0.5830450818101550  0.8340275932850790  0.2858637128041220 T T T
  0.7499157737420820  0.8345250707226840  0.2861242454321130 T T T
  0.9163545768622821  0.8337119948473060  0.2857377842867880 T T T
  0.5000914507309840  0.4982966067842800  0.4511829730556730 T T T
