Al 
 1.0000000000000000
    14.3189130000000002    0.0000000000000000    0.0000000000000000
     0.0000000000000000   14.3189130000000002    0.0000000000000000
     0.0000000000000000    0.0000000000000000   20.0625000000000000
  51
Selective dynamics
Cartesian
  1.4318910000000031  1.4318910000000031 15.0000000000000018   F   F   F
  4.2956740000000018  1.4318910000000031 15.0000000000000018   F   F   F
  7.1594560000000014  1.4318910000000031 15.0000000000000018   F   F   F
 10.0232390000000002  1.4318910000000031 15.0000000000000018   F   F   F
 12.8870210000000007  1.4318910000000031 15.0000000000000018   F   F   F
  1.4318910000000031  4.2956740000000018 15.0000000000000018   F   F   F
  4.2956740000000018  4.2956740000000018 15.0000000000000018   F   F   F
  7.1594560000000014  4.2956740000000018 15.0000000000000018   F   F   F
 10.0232390000000002  4.2956740000000018 15.0000000000000018   F   F   F
 12.8870210000000007  4.2956740000000018 15.0000000000000018   F   F   F
  1.4318910000000031  7.1594560000000014 15.0000000000000018   F   F   F
  4.2956740000000018  7.1594560000000014 15.0000000000000018   F   F   F
  7.1594560000000014  7.1594560000000014 15.0000000000000018   F   F   F
 10.0232390000000002  7.1594560000000014 15.0000000000000018   F   F   F
 12.8870210000000007  7.1594560000000014 15.0000000000000018   F   F   F
  1.4318910000000031 10.0232390000000002 15.0000000000000018   F   F   F
  4.2956740000000018 10.0232390000000002 15.0000000000000018   F   F   F
  7.1594560000000014 10.0232390000000002 15.0000000000000018   F   F   F
 10.0232390000000002 10.0232390000000002 15.0000000000000018   F   F   F
 12.8870210000000007 10.0232390000000002 15.0000000000000018   F   F   F
  1.4318910000000031 12.8870210000000007 15.0000000000000018   F   F   F
  4.2956740000000018 12.8870210000000007 15.0000000000000018   F   F   F
  7.1594560000000014 12.8870210000000007 15.0000000000000018   F   F   F
 10.0232390000000002 12.8870210000000007 15.0000000000000018   F   F   F
 12.8870210000000007 12.8870210000000007 15.0000000000000018   F   F   F
  0.0036487354791848  0.0002512977187822 17.1518024236248294   T   T   T
  2.8630385307577413 -0.0000314243591318 17.1578540017904260   T   T   T
  5.7237832936483697  0.0000420658041125 17.1515377528116701   T   T   T
  8.5912101490412613  0.0009497491158805 17.1581116691854767   T   T   T
 11.4560913530820532 -0.0012277056224441 17.1568642254689259   T   T   T
 -0.0022674767179756  2.8651010035606199 17.1540812558656981   T   T   T
  2.8643258083583851  2.8605551252657220 17.1509484357403110   T   T   T
  5.7298392502655462  2.8576075537652703 17.1540320514634210   T   T   T
  8.5934979932535178  2.8128208869459295 17.1497976389059481   T   T   T
 11.4545057714368212  2.8215311313146372 17.1487569462089198   T   T   T
  0.0421527919853551  5.7298052733089531 17.1516032323237120   T   T   T
  2.8540853984830199  5.7274069188839674 17.1564103649072024   T   T   T
  5.6690503305724613  5.7112687902721069 17.1427130571908073   T   T   T
  8.5267298639701838  5.6305547349480527 17.1195266403836577   T   T   T
 11.5441897817774191  5.6475441347323230 17.1243633177025636   T   T   T
  0.0429443700034627  8.5913095111289088 17.1494249925711522   T   T   T
  2.8565887205855622  8.5911155830226704 17.1568615704168579   T   T   T
  5.6691161966767663  8.6053465390808466 17.1449810723481200   T   T   T
  9.8006300618830551  9.8006207809942829 18.4177232483704003   T   T   T
 11.5439990932014744  8.6720253425375731 17.1240661951031043   T   T   T
 -0.0020808561567735 11.4535642957388610 17.1539847078657317   T   T   T
  2.8640084648298170 11.4584199261225059 17.1509699805970293   T   T   T
  5.7298435046164871 11.4617500482536698 17.1535337894177786   T   T   T
  8.5909586850286512 11.5061322909301325 17.1478616991812807   T   T   T
 11.4524737011789099 11.4971002745867619 17.1510931127842596   T   T   T
  8.2719677603899306  8.4332237964656471 17.3790403220178469   T   T   T
