Ag
 1.0000000000000000
    17.3524004103179017    0.0000000000000000    0.0000000000000000
     0.0000000000000000   15.0276195719747996    0.0000000000000000
     0.0000000000000000    0.0000000000000000   12.3613626009856006
 Ag 
  73
Selective dynamics
Cartesian
 17.3519860591601898  1.6646624613177332  1.2674161392609207   F   F   F
  2.8971185870756440  1.6633401840559601  1.2839403913000689   F   F   F
  5.7835345979547128  1.6660733488205259  1.2797833037518094   F   F   F
  8.6763869644603933  1.6713175171660357  1.2826657380641409   F   F   F
 11.5683676158757134  1.6667522807933577  1.2804492336188009   F   F   F
 14.4552506405447900  1.6640770520644770  1.2833557843326486   F   F   F
  1.4451850836480984  4.1665431424588935  1.2869790058543467   F   F   F
  4.3411352505084864  4.1684160218517201  1.2727092754489249   F   F   F
  7.2327337036314630  4.1712855846734485  1.2714849637612464   F   F   F
 10.1194219163489674  4.1719759488588348  1.2690171381559270   F   F   F
 13.0090454719434074  4.1696037534763724  1.2792549589911686   F   F   F
 15.9062288085694448  4.1674383168451126  1.2871926122637471   F   F   F
 17.3521242154967439  6.6684766520484589  1.3002920174906996   F   F   F
  2.8894191349654430  6.6722388997935713  1.2711753986761891   F   F   F
  5.7890283581129296  6.6773914740965408  1.3522302094586511   F   F   F
  8.6779475243402846  6.6632183380603660  1.3326153604953661   F   F   F
 11.5575302170112728  6.6814230071954990  1.3569710711774410   F   F   F
 14.4610018347400349  6.6726173558638795  1.2761647102278504   F   F   F
  1.4504204353434464  9.1837354720152931  1.2913301174418486   F   F   F
  4.3391570268301418  9.1833334335658101  1.3034187829848460   F   F   F
  7.2168189338170698  9.1856841403203244  1.3331467711577116   F   F   F
 10.1345728322021316  9.1830212924692507  1.3415917365885308   F   F   F
 13.0140799573655919  9.1827797588702413  1.2928461642549360   F   F   F
 15.9019026943627271  9.1852635116331793  1.2932739751851514   F   F   F
  0.0002039499994310 11.6870287115195861  1.2994831352422211   F   F   F
  2.8942310124095778 11.6896020609429243  1.2805424977353665   F   F   F
  5.7873950450380525 11.6866831670555467  1.2951119649593181   F   F   F
  8.6767216921271544 11.6966369187389443  1.3064271523394926   F   F   F
 11.5661680821143698 11.6872992516153626  1.2916970226557534   F   F   F
 14.4585661179929321 11.6897866894437037  1.2811352378816447   F   F   F
  1.4450530452603898 14.1966878024896204  1.2835180675712210   F   F   F
  4.3440154109998357 14.1956184818835460  1.2810087150688869   F   F   F
  7.2308513168671347 14.1931253355378839  1.2580596399689590   F   F   F
 10.1211173955461948 14.1942513838689059  1.2560936619380483   F   F   F
 13.0082062623537595 14.1960032608136544  1.2825220123402714   F   F   F
 15.9079851618173809 14.1969724231298056  1.2835248875784993   F   F   F
  0.0002788427054876  0.0017336142775917  3.8102469396793506   T   T   T
  2.8911044391554772 15.0257417025649200  3.8127747762677688   T   T   T
  5.7862819974106747  0.0021912046370042  3.7991144336889549   T   T   T
  8.6762406164012944  0.0013619912007324  3.7893489679287296   T   T   T
 11.5655658849027461  0.0029296900138285  3.7992409639519487   T   T   T
 14.4619489755057078 15.0274795565034029  3.8126238913391766   T   T   T
  1.4437531319695356  2.4977630819332282  3.8060627532660400   T   T   T
  4.3345885778537232  2.4965453082188405  3.8075096442919589   T   T   T
  7.2311597773687826  2.5075707991914626  3.8047260230096835   T   T   T
 10.1218086647330505  2.5083874184302344  3.8049585866446423   T   T   T
 13.0180594443895306  2.4981256902078721  3.8092759856508631   T   T   T
 15.9091977665007764  2.4987058814454772  3.8058611041322270   T   T   T
  0.0009823961294079  5.0014902505309005  3.8192407285456191   T   T   T
  2.8856282241144373  5.0020595791908304  3.8003963314345883   T   T   T
  5.7694107826681975  4.9892141647903196  3.8206652424587948   T   T   T
  8.6761753883470796  5.0098703504674598  3.8638252874802879   T   T   T
 11.5836042584343684  4.9908834459859550  3.8232848987663592   T   T   T
 14.4687779296225152  5.0031295736482599  3.8039118842217992   T   T   T
  1.4408178370154234  7.5123858462143591  3.8117404689546039   T   T   T
  4.3088671081010617  7.5124517100037975  3.8245607521981282   T   T   T
  7.1853877556799324  7.4974322380425011  3.7864480575016453   T   T   T
 10.1673463342982036  7.4975397845452196  3.7966397722744030   T   T   T
 13.0445571545622396  7.5144178432145079  3.8238675167932468   T   T   T
 15.9144341263550171  7.5131089590815936  3.8135334919343484   T   T   T
 17.3526184855454524 10.0222827328354374  3.8178749266652336   T   T   T
  2.8836569287913223 10.0254935646559371  3.8174591060403325   T   T   T
  5.7674880472887446 10.0287913850677910  3.8510504178494518   T   T   T
  8.6762859632771665 10.0224583954903146  3.8866192023707811   T   T   T
 11.5867730406730480 10.0292674810994829  3.8461549980081404   T   T   T
 14.4681014754690711 10.0264667553248987  3.8155352970382976   T   T   T
  1.4452069189557453 12.5288675923267121  3.8127548317955045   T   T   T
  4.3359649722466145 12.5292425962690626  3.8110557674486567   T   T   T
  7.2289367337231960 12.5274173814590366  3.8076070756731384   T   T   T
 10.1237360034130699 12.5277795704672172  3.8060592451302862   T   T   T
 13.0164528785724869 12.5313991071848108  3.8115706904256221   T   T   T
 15.9071634491421090 12.5294868709585376  3.8124991053549215   T   T   T
  8.6679330859059931  8.1152428972304076  6.0310401463740204   T   T   T
