Ag
    1.000000000000000     
  17.3524004103179017   0.0000000000000000   0.0000000000000000
   0.0000000000000000  15.0276195719747996   0.0000000000000000
   0.0000000000000000   0.0000000000000000  12.3613626009856006
Ag
73  
Selective dynamics
Direct
  0.9999761213925500  0.1107735295896220  0.1025304555955560 F F F
  0.1669577994150590  0.1106855397882140  0.1038672218221070 F F F
  0.3332988209813190  0.1108674158831920  0.1035309249523810 F F F
  0.5000107627358190  0.1112163845485480  0.1037641059054340 F F F
  0.6666724684958890  0.1109125948265090  0.1035847968343480 F F F
  0.8330404035599340  0.1107345740351210  0.1038199287374940 F F F
  0.0832844476542149  0.2772590244584800  0.1041130373241970 F F F
  0.2501749122805630  0.2773836536044240  0.1029586556539850 F F F
  0.4168145923679130  0.2775746061906260  0.1028596122291460 F F F
  0.5831713006306530  0.2776205458806800  0.1026599719722440 F F F
  0.7496971695171410  0.2774626901823040  0.1034881833244800 F F F
  0.9166587003785051  0.2773185930669300  0.1041303174911410 F F F
  0.9999840831922600  0.4437480347509320  0.1051900230955950 F F F
  0.1665140883475330  0.4439983902864240  0.1028345692710960 F F F
  0.3336154204158820  0.4443412639051160  0.1093916789845510 F F F
  0.5001006961077440  0.4433981247759750  0.1078048920261520 F F F
  0.6660479209630880  0.4446095388025240  0.1097752015679280 F F F
  0.8333718386386120  0.4440235743196300  0.1032381907578780 F F F
  0.0835861552895594  0.6111237663443490  0.1044650302013540 F F F
  0.2500609093972980  0.6110970130420340  0.1054429697645890 F F F
  0.4158974414586400  0.6112534387981730  0.1078478816770100 F F F
  0.5840444314652870  0.6110762418816340  0.1085310559922870 F F F
  0.7499873014471991  0.6110601692363390  0.1045876741898870 F F F
  0.9164093911126731  0.6112254484245060  0.1046222829093320 F F F
  0.0000117534170840  0.7777032586927390  0.1051245867618680 F F F
  0.1667913916214520  0.7778745000134960  0.1035923416430860 F F F
  0.3335212943563020  0.7776802647340230  0.1047709711918050 F F F
  0.5000300527279150  0.7783426285658810  0.1056863385137920 F F F
  0.6665457117527680  0.7777212615503760  0.1044947118170260 F F F
  0.8332314709263930  0.7778867859580459  0.1036402926793440 F F F
  0.0832768384252560  0.9447063611435310  0.1038330570020560 F F F
  0.2503408928033290  0.9446352041248860  0.1036300573341930 F F F
  0.4167061124619740  0.9444692998488480  0.1017735407153780 F F F
  0.5832690092563840  0.9445442317650860  0.1016144985373940 F F F
  0.7496488067794330  0.9446608089073510  0.1037524788924170 F F F
  0.9167599171097010  0.9447253009788670  0.1038336087217570 F F F
  0.0000010329105535  0.0000943548068832  0.2848082860925630 T T T
  0.1667689079424480  0.9998765875509150  0.2852734461946870 T T T
  0.3336905684733940  0.0002807041087465  0.2853810628878360 T T T
  0.4999550642785310  0.0002218082613439  0.2844725404679740 T T T
  0.6661977559223470  0.0003495175067201  0.2853193550928590 T T T
  0.8332171832665690  0.9999457089383630  0.2852646588299090 T T T
  0.0832866738079971  0.1665808679812600  0.2850662573574430 T T T
  0.2499997826287340  0.1663745734941950  0.2857582810999450 T T T
  0.4168185735802650  0.1670861776627180  0.2854841233919460 T T T
  0.5832139899294970  0.1671773098164170  0.2853689221715430 T T T
  0.7501544316224700  0.1663502210758240  0.2858094852804670 T T T
  0.9167794038741800  0.1666030729616420  0.2854800168940200 T T T
  0.0000909988735174  0.3329750466123610  0.2862329462466700 T T T
  0.1664075756113950  0.3330746052448320  0.2851305249375360 T T T
  0.3329267112762720  0.3318744301241450  0.2864191980864130 T T T
  0.5000981599692410  0.3328003702618570  0.2883046277650510 T T T
  0.6671808265084490  0.3319528099486530  0.2866976012903990 T T T
  0.8336937219253709  0.3331633842016120  0.2853678137343890 T T T
  0.0830072247574662  0.5001459096640630  0.2864250705396930 T T T
  0.2479981225340070  0.5001814895041510  0.2867006455056750 T T T
  0.4125675472695320  0.4992526915717760  0.2897353500566740 T T T
  0.5874005718484060  0.4993835617306460  0.2904011171077340 T T T
  0.7520551164369640  0.5004337119891390  0.2866605507115810 T T T
  0.9170725391990900  0.5001934185357511  0.2865393992325740 T T T
  0.9999425550838910  0.6665250030177750  0.2864816813983420 T T T
  0.1659797116690740  0.6671165680208230  0.2867246310397600 T T T
  0.3324694369265020  0.6676931497067640  0.2879573819666210 T T T
  0.4999849575548300  0.6697183323758010  0.2900841399648970 T T T
  0.6676708632657270  0.6678953286011970  0.2877239479836860 T T T
  0.8339862740496780  0.6671539463743910  0.2865486064887220 T T T
  0.0834066417961523  0.8335529367631200  0.2857522892002040 T T T
  0.2497826238014010  0.8336344467156560  0.2861941565510120 T T T
  0.4164595995249560  0.8346324638339550  0.2861094276558090 T T T
  0.5835095851836271  0.8346422614127390  0.2856685799950540 T T T
  0.7501282223400380  0.8338012773234100  0.2862014767837520 T T T
  0.9165034174910640  0.8335973799660930  0.2858181234825850 T T T
  0.4995684046371240  0.5402155141597050  0.4510992524710740 T T T
