Al 
 1.0000000000000000
    14.3189130000000002    0.0000000000000000    0.0000000000000000
     0.0000000000000000   14.3189130000000002    0.0000000000000000
     0.0000000000000000    0.0000000000000000   20.0625000000000000
  51
Selective dynamics
Cartesian
  1.4318910000000031  1.4318910000000031 15.0000000000000018   F   F   F
  4.2956740000000018  1.4318910000000031 15.0000000000000018   F   F   F
  7.1594560000000014  1.4318910000000031 15.0000000000000018   F   F   F
 10.0232390000000002  1.4318910000000031 15.0000000000000018   F   F   F
 12.8870210000000007  1.4318910000000031 15.0000000000000018   F   F   F
  1.4318910000000031  4.2956740000000018 15.0000000000000018   F   F   F
  4.2956740000000018  4.2956740000000018 15.0000000000000018   F   F   F
  7.1594560000000014  4.2956740000000018 15.0000000000000018   F   F   F
 10.0232390000000002  4.2956740000000018 15.0000000000000018   F   F   F
 12.8870210000000007  4.2956740000000018 15.0000000000000018   F   F   F
  1.4318910000000031  7.1594560000000014 15.0000000000000018   F   F   F
  4.2956740000000018  7.1594560000000014 15.0000000000000018   F   F   F
  7.1594560000000014  7.1594560000000014 15.0000000000000018   F   F   F
 10.0232390000000002  7.1594560000000014 15.0000000000000018   F   F   F
 12.8870210000000007  7.1594560000000014 15.0000000000000018   F   F   F
  1.4318910000000031 10.0232390000000002 15.0000000000000018   F   F   F
  4.2956740000000018 10.0232390000000002 15.0000000000000018   F   F   F
  7.1594560000000014 10.0232390000000002 15.0000000000000018   F   F   F
 10.0232390000000002 10.0232390000000002 15.0000000000000018   F   F   F
 12.8870210000000007 10.0232390000000002 15.0000000000000018   F   F   F
  1.4318910000000031 12.8870210000000007 15.0000000000000018   F   F   F
  4.2956740000000018 12.8870210000000007 15.0000000000000018   F   F   F
  7.1594560000000014 12.8870210000000007 15.0000000000000018   F   F   F
 10.0232390000000002 12.8870210000000007 15.0000000000000018   F   F   F
 12.8870210000000007 12.8870210000000007 15.0000000000000018   F   F   F
  0.0029131159022137  0.0002142168150121 17.1533198553778305   T   T   T
  2.8623095789866273 -0.0000725794725435 17.1563275823182835   T   T   T
  5.7244909198388738  0.0003249174306863 17.1528626668484208   T   T   T
  8.5912911552984337  0.0004529861874719 17.1581030615744190   T   T   T
 11.4567910662099433 -0.0009315556237749 17.1555421261556980   T   T   T
 -0.0017687076997467  2.8639783978096776 17.1533206876864242   T   T   T
  2.8647117109269256  2.8617672980309949 17.1516952147222028   T   T   T
  5.7299154523773641  2.8486512345914470 17.1532876622706283   T   T   T
  8.5930609608786686  2.8127585063830578 17.1493439515704651   T   T   T
 11.4540741387944305  2.8304658345586695 17.1499716903422339   T   T   T
  0.0333935456526057  5.7293157953000016 17.1529130864174242   T   T   T
  2.8457683805455587  5.7274409225578271 17.1546589775073173   T   T   T
  5.6614397868413464  5.6951370028897008 17.1380748910253864   T   T   T
  8.5590327489639897  5.6306535672366378 17.1195488285828503   T   T   T
 11.5365510920260146  5.6640743739536816 17.1295571547143233   T   T   T
  0.0346276866334733  8.5913649246588140 17.1511785883687260   T   T   T
  2.8478467170974966  8.5906355281299120 17.1555383202414760   T   T   T
  5.6614474999522422  8.6218592552944600 17.1397858596232346   T   T   T
  9.5781491393214964  9.5781305819885656 18.1580372926892579   T   T   T
 11.5364044791219751  8.6559132825744491 17.1286941460205568   T   T   T
 -0.0017155023648085 11.4547834267990343 17.1532214827121763   T   T   T
  2.8645116613718056 11.4572763373047941 17.1517395017688123   T   T   T
  5.7294139310102601 11.4706367329292167 17.1523402816419583   T   T   T
  8.5905270440795309 11.5060770332505911 17.1483210613421342   T   T   T
 11.4525631921407722 11.4881809391097764 17.1518056155153715   T   T   T
  8.0494667410200442  8.1785010793034125 17.6387214066295002   T   T   T
