# set EDIFFG to match ASE example
EDIFFG = -0.04
POTIM = 1
ISIF = 1
MD_ALGO = 0
NSW = 250
IBRION=3
IOPT=7
MAXMOVE=0.1
POTENTIAL=EMT
ICHAIN=0
IMAGES=8
