Al 
 1.0000000000000000
    14.3189130000000002    0.0000000000000000    0.0000000000000000
     0.0000000000000000   14.3189130000000002    0.0000000000000000
     0.0000000000000000    0.0000000000000000   20.0625000000000000
  51
Selective dynamics
Cartesian
  1.4318910000000031  1.4318910000000031 15.0000000000000018   F   F   F
  4.2956740000000018  1.4318910000000031 15.0000000000000018   F   F   F
  7.1594560000000014  1.4318910000000031 15.0000000000000018   F   F   F
 10.0232390000000002  1.4318910000000031 15.0000000000000018   F   F   F
 12.8870210000000007  1.4318910000000031 15.0000000000000018   F   F   F
  1.4318910000000031  4.2956740000000018 15.0000000000000018   F   F   F
  4.2956740000000018  4.2956740000000018 15.0000000000000018   F   F   F
  7.1594560000000014  4.2956740000000018 15.0000000000000018   F   F   F
 10.0232390000000002  4.2956740000000018 15.0000000000000018   F   F   F
 12.8870210000000007  4.2956740000000018 15.0000000000000018   F   F   F
  1.4318910000000031  7.1594560000000014 15.0000000000000018   F   F   F
  4.2956740000000018  7.1594560000000014 15.0000000000000018   F   F   F
  7.1594560000000014  7.1594560000000014 15.0000000000000018   F   F   F
 10.0232390000000002  7.1594560000000014 15.0000000000000018   F   F   F
 12.8870210000000007  7.1594560000000014 15.0000000000000018   F   F   F
  1.4318910000000031 10.0232390000000002 15.0000000000000018   F   F   F
  4.2956740000000018 10.0232390000000002 15.0000000000000018   F   F   F
  7.1594560000000014 10.0232390000000002 15.0000000000000018   F   F   F
 10.0232390000000002 10.0232390000000002 15.0000000000000018   F   F   F
 12.8870210000000007 10.0232390000000002 15.0000000000000018   F   F   F
  1.4318910000000031 12.8870210000000007 15.0000000000000018   F   F   F
  4.2956740000000018 12.8870210000000007 15.0000000000000018   F   F   F
  7.1594560000000014 12.8870210000000007 15.0000000000000018   F   F   F
 10.0232390000000002 12.8870210000000007 15.0000000000000018   F   F   F
 12.8870210000000007 12.8870210000000007 15.0000000000000018   F   F   F
  0.0014418767482714  0.0001400550074718 17.1563547188838363   T   T   T
  2.8608516754444002 -0.0001548896993670 17.1532747433740056   T   T   T
  5.7259061722198803  0.0008906206838339 17.1555124949219184   T   T   T
  8.5914531678127783 -0.0005405396693455 17.1580858463523001   T   T   T
 11.4581904924657252 -0.0003392556264364 17.1528979275292350   T   T   T
 -0.0007711696632888  2.8617331863077928 17.1517995513278834   T   T   T
  2.8654835160640069  2.8641916435615413 17.1531887726859864   T   T   T
  5.7300678566009990  2.8307385962438012 17.1517988838850357   T   T   T
  8.5921868961289718  2.8126337452573140 17.1484365768994920   T   T   T
 11.4532108735096489  2.8483352410467337 17.1524011786088550   T   T   T
  0.0158750529871067  5.7283368392820968 17.1555327946048521   T   T   T
  2.8291343446706358  5.7275089299055457 17.1511562027075435   T   T   T
  5.6462186993791157  5.6628734281248887 17.1287985586945375   T   T   T
  8.6236385189515978  5.6308512318138062 17.1195932049812320   T   T   T
 11.5212737125232056  5.6971348523963998 17.1399448287378426   T   T   T
  0.0179943198934946  8.5914757517186242 17.1546857799638772   T   T   T
  2.8303627101213658  8.5896754183443971 17.1528918198907085   T   T   T
  5.6461101065031922  8.6548846877216832 17.1293954341734711   T   T   T
  9.1331872941983772  9.1331501839771310 17.6386653813269660   T   T   T
 11.5212152509629746  8.6236891626481995 17.1379500478554583   T   T   T
 -0.0009847947808786 11.4572216889193790 17.1516950324050654   T   T   T
  2.8655180544557823 11.4549891596693687 17.1532785441123821   T   T   T
  5.7285547837978061 11.4884101022803069 17.1499532660903213   T   T   T
  8.5896637621812921 11.5059665178915100 17.1492397856638448   T   T   T
 11.4527421740644950 11.4703422681558092 17.1532306209775918   T   T   T
  7.6044647022802678  7.6690556449789433 18.1580835758528103   T   T   T
