Ag
    1.000000000000000     
  17.3524004103179017   0.0000000000000000   0.0000000000000000
   0.0000000000000000  15.0276195719747996   0.0000000000000000
   0.0000000000000000   0.0000000000000000  12.3613626009856006
Ag
73  
Selective dynamics
Direct
  0.9999761213925497  0.1107735295896219  0.1025304555955557 F F F
  0.1669577994150586  0.1106855397882143  0.1038672218221066 F F F
  0.3332988209813197  0.1108674158831917  0.1035309249523806 F F F
  0.5000107627358191  0.1112163845485483  0.1037641059054337 F F F
  0.6666724684958898  0.1109125948265088  0.1035847968343475 F F F
  0.8330404035599344  0.1107345740351206  0.1038199287374937 F F F
  0.0832844476542149  0.2772590244584805  0.1041130373241970 F F F
  0.2501749122805637  0.2773836536044243  0.1029586556539854 F F F
  0.4168145923679137  0.2775746061906261  0.1028596122291461 F F F
  0.5831713006306529  0.2776205458806800  0.1026599719722441 F F F
  0.7496971695171415  0.2774626901823039  0.1034881833244796 F F F
  0.9166587003785058  0.2773185930669300  0.1041303174911405 F F F
  0.9999840831922596  0.4437480347509321  0.1051900230955951 F F F
  0.1665140883475331  0.4439983902864242  0.1028345692710957 F F F
  0.3336154204158820  0.4443412639051161  0.1093916789845508 F F F
  0.5001006961077437  0.4433981247759746  0.1078048920261523 F F F
  0.6660479209630884  0.4446095388025242  0.1097752015679276 F F F
  0.8333718386386124  0.4440235743196297  0.1032381907578781 F F F
  0.0835861552895594  0.6111237663443490  0.1044650302013537 F F F
  0.2500609093972986  0.6110970130420340  0.1054429697645887 F F F
  0.4158974414586397  0.6112534387981725  0.1078478816770101 F F F
  0.5840444314652876  0.6110762418816336  0.1085310559922874 F F F
  0.7499873014471993  0.6110601692363389  0.1045876741898866 F F F
  0.9164093911126736  0.6112254484245057  0.1046222829093324 F F F
  0.0000117534170840  0.7777032586927387  0.1051245867618675 F F F
  0.1667913916214516  0.7778745000134957  0.1035923416430862 F F F
  0.3335212943563022  0.7776802647340232  0.1047709711918045 F F F
  0.5000300527279151  0.7783426285658805  0.1056863385137916 F F F
  0.6665457117527680  0.7777212615503757  0.1044947118170256 F F F
  0.8332314709263933  0.7778867859580458  0.1036402926793443 F F F
  0.0832768384252560  0.9447063611435312  0.1038330570020562 F F F
  0.2503408928033295  0.9446352041248858  0.1036300573341933 F F F
  0.4167061124619737  0.9444692998488478  0.1017735407153779 F F F
  0.5832690092563837  0.9445442317650858  0.1016144985373941 F F F
  0.7496488067794331  0.9446608089073506  0.1037524788924173 F F F
  0.9167599171097014  0.9447253009788668  0.1038336087217573 F F F
  0.0000136132691906  0.0000213699533513  0.2848379117440724 T T T
  0.1667582306676121  0.9997898261551320  0.2852863491031745 T T T
  0.3336298376660865  0.0002845822885604  0.2854343560965253 T T T
  0.5000156364955458  0.0001881554655498  0.2845104563444893 T T T
  0.6663415441084860  0.0003026852768873  0.2853955644087563 T T T
  0.8332569376183463  0.9998005725597936  0.2852784815925488 T T T
  0.0831977431035422  0.1666036856534671  0.2850253489186790 T T T
  0.2498695033154511  0.1662806090724015  0.2857341078267669 T T T
  0.4166191732639587  0.1668116576686708  0.2855538430065949 T T T
  0.5833152360354472  0.1668841267252209  0.2854245906498326 T T T
  0.7501975460836028  0.1662352310211168  0.2857536814548524 T T T
  0.9167442398055936  0.1666073584392133  0.2855150853134323 T T T
  0.0000159877285189  0.3330019368686613  0.2861565941774405 T T T
  0.1663240761848040  0.3330569326206259  0.2850701097609122 T T T
  0.3328134468259079  0.3318311540313216  0.2862755089505087 T T T
  0.4999692126703269  0.3319144006701324  0.2871528473804283 T T T
  0.6670964850044329  0.3318829793433333  0.2865464275347154 T T T
  0.8336075912226120  0.3331314623717289  0.2853020680408792 T T T
  0.0829806066374005  0.5002531721763569  0.2864134952141311 T T T
  0.2481634185403135  0.5001232502827323  0.2866805237100539 T T T
  0.4130611002838515  0.4985687485316095  0.2901498449468871 T T T
  0.5867104037539378  0.4986444771590502  0.2908278190531867 T T T
  0.7517575920965029  0.5003308252122620  0.2866512114861522 T T T
  0.9169932861888890  0.5002788503039594  0.2865191301995929 T T T
  0.9999647185333774  0.6665041889354308  0.2865418229744433 T T T
  0.1661035081462176  0.6670418332534939  0.2867741833369289 T T T
  0.3326918699800739  0.6675068668806069  0.2880701802982933 T T T
  0.4999974274429466  0.6705371881644053  0.2897654406907166 T T T
  0.6674790758932364  0.6676192549432128  0.2878287358035481 T T T
  0.8339273067546860  0.6670012712437631  0.2865946028269604 T T T
  0.0834582115091491  0.8335634671544296  0.2857591412129154 T T T
  0.2498327219316333  0.8334840219267254  0.2862190281988683 T T T
  0.4164292972949908  0.8348914164625153  0.2860985018647031 T T T
  0.5836644196414514  0.8348471507886316  0.2856035357253641 T T T
  0.7501990385393558  0.8335600128569820  0.2862272205676297 T T T
  0.9165530310339872  0.8335591750056921  0.2858449032145188 T T T
  0.4993940559391727  0.5541884832848457  0.4510713456095356 T T T
