POTENTIAL=EMT
IBRION=3
ICHAIN=2
POTIM=0
NSW=1000
IOPT=2