POTENTIAL=EMT
IBRION=0
ICHAIN=2
POTIM=0
NSW=1000
IOPT=2