Pt
 1.0000000000000000
     5.5437171645025325    0.0000000000000000    0.0000000000000000
     0.0000000000000000    5.5437171645025325    0.0000000000000000
     0.0000000000000000    0.0000000000000000   20.0000000000000000
 Pt 
   5
Cartesian
  0.0000000000000000  0.0000000000000000 10.0000000000000000
  2.7718585822512662  0.0000000000000000 10.0000000000000000
  0.0000000000000000  2.7718585822512662 10.0000000000000000
  2.7718585822512662  2.7718585822512662 10.0000000000000000
  1.3859292911256331  1.3859292911256331 11.6110000000000007
