Ag
    1.000000000000000     
  17.3524004103179017   0.0000000000000000   0.0000000000000000
   0.0000000000000000  15.0276195719747996   0.0000000000000000
   0.0000000000000000   0.0000000000000000  12.3613626009856006
Ag
73  
Selective dynamics
Direct
  0.9999761213925497  0.1107735295896219  0.1025304555955557 F F F
  0.1669577994150586  0.1106855397882143  0.1038672218221066 F F F
  0.3332988209813197  0.1108674158831917  0.1035309249523806 F F F
  0.5000107627358191  0.1112163845485483  0.1037641059054337 F F F
  0.6666724684958898  0.1109125948265088  0.1035847968343475 F F F
  0.8330404035599344  0.1107345740351206  0.1038199287374937 F F F
  0.0832844476542149  0.2772590244584805  0.1041130373241970 F F F
  0.2501749122805637  0.2773836536044243  0.1029586556539854 F F F
  0.4168145923679137  0.2775746061906261  0.1028596122291461 F F F
  0.5831713006306529  0.2776205458806800  0.1026599719722441 F F F
  0.7496971695171415  0.2774626901823039  0.1034881833244796 F F F
  0.9166587003785058  0.2773185930669300  0.1041303174911405 F F F
  0.9999840831922596  0.4437480347509321  0.1051900230955951 F F F
  0.1665140883475331  0.4439983902864242  0.1028345692710957 F F F
  0.3336154204158820  0.4443412639051161  0.1093916789845508 F F F
  0.5001006961077437  0.4433981247759746  0.1078048920261523 F F F
  0.6660479209630884  0.4446095388025242  0.1097752015679276 F F F
  0.8333718386386124  0.4440235743196297  0.1032381907578781 F F F
  0.0835861552895594  0.6111237663443490  0.1044650302013537 F F F
  0.2500609093972986  0.6110970130420340  0.1054429697645887 F F F
  0.4158974414586397  0.6112534387981725  0.1078478816770101 F F F
  0.5840444314652876  0.6110762418816336  0.1085310559922874 F F F
  0.7499873014471993  0.6110601692363389  0.1045876741898866 F F F
  0.9164093911126736  0.6112254484245057  0.1046222829093324 F F F
  0.0000117534170840  0.7777032586927387  0.1051245867618675 F F F
  0.1667913916214516  0.7778745000134957  0.1035923416430862 F F F
  0.3335212943563022  0.7776802647340232  0.1047709711918045 F F F
  0.5000300527279151  0.7783426285658805  0.1056863385137916 F F F
  0.6665457117527680  0.7777212615503757  0.1044947118170256 F F F
  0.8332314709263933  0.7778867859580458  0.1036402926793443 F F F
  0.0832768384252560  0.9447063611435312  0.1038330570020562 F F F
  0.2503408928033295  0.9446352041248858  0.1036300573341933 F F F
  0.4167061124619737  0.9444692998488478  0.1017735407153779 F F F
  0.5832690092563837  0.9445442317650858  0.1016144985373941 F F F
  0.7496488067794331  0.9446608089073506  0.1037524788924173 F F F
  0.9167599171097014  0.9447253009788668  0.1038336087217573 F F F
  0.9999381311173550  0.0004592790745494  0.2846601578350056 T T T
  0.1668222943166050  0.0003103945298482  0.2852089316522642 T T T
  0.3339942225099229  0.0002613132096898  0.2851145968444068 T T T
  0.4996522031934461  0.0003900722403120  0.2842829610853946 T T T
  0.6654788149916547  0.0005836786558948  0.2849383085133557 T T T
  0.8330184115076683  0.0006713908312032  0.2851955450166969 T T T
  0.0837313273302620  0.1664667796202069  0.2852707995512477 T T T
  0.2506511791951390  0.1668443956031625  0.2858791474658440 T T T
  0.4178155751617804  0.1684587776329480  0.2851355253187117 T T T
  0.5827077593997393  0.1686432252723875  0.2850905797800985 T T T
  0.7499388593168153  0.1669251713493723  0.2860885044085583 T T T
  0.9169552242171292  0.1665816455737950  0.2853046747969452 T T T
  0.0004660545984891  0.3328405953308715  0.2866147065927993 T T T
  0.1668250727443481  0.3331629683658426  0.2854326008206510 T T T
  0.3334930335281047  0.3320908105882501  0.2871376437659317 T T T
  0.5007428964638119  0.3372302182204903  0.2940635296881487 T T T
  0.6676025340285454  0.3323019629752411  0.2874534700688162 T T T
  0.8341243754391521  0.3333229933510053  0.2856965422019447 T T T
  0.0831403153577979  0.4996095971026097  0.2864829471675034 T T T
  0.2471716425024646  0.5004726856112242  0.2868012544837696 T T T
  0.4100997821979208  0.5026724067726202  0.2876628756056099 T T T
  0.5908514123207405  0.5030789845886072  0.2882676073804918 T T T
  0.7535427381392867  0.5009481458735334  0.2867072468387175 T T T
  0.9174688042501078  0.4997662596947122  0.2866407443974711 T T T
  0.9998317378364669  0.6666290734294934  0.2861809735178267 T T T
  0.1653607292833375  0.6674902418574516  0.2864768695539250 T T T
  0.3313572716586506  0.6686245638375578  0.2873933903082572 T T T
  0.4999226081142337  0.6656240534327920  0.2916776363357867 T T T
  0.6686298001281656  0.6692756968911383  0.2872000088843810 T T T
  0.8342811105246307  0.6679173220275403  0.2863186247975175 T T T
  0.0831487932311669  0.8335002848065732  0.2857180291366467 T T T
  0.2495321331502359  0.8343865706602982  0.2860697983117333 T T T
  0.4166111106747841  0.8333377006911535  0.2861640566113190 T T T
  0.5827354128945117  0.8336178145332945  0.2859938013434919 T T T
  0.7497741413434337  0.8350075996555391  0.2860727578643522 T T T
  0.9162553497764340  0.8337884047681118  0.2856842248229239 T T T
  0.5004401481268853  0.4703506685339869  0.4512387867787501 T T T
