Ag
 1.0000000000000000
    17.3524004103179017    0.0000000000000000    0.0000000000000000
     0.0000000000000000   15.0276195719747996    0.0000000000000000
     0.0000000000000000    0.0000000000000000   12.3613626009856006
 Ag 
  73
Selective dynamics
Cartesian
 17.3519860591601898  1.6646624613177332  1.2674161392609207   F   F   F
  2.8971185870756440  1.6633401840559601  1.2839403913000689   F   F   F
  5.7835345979547128  1.6660733488205259  1.2797833037518094   F   F   F
  8.6763869644603933  1.6713175171660357  1.2826657380641409   F   F   F
 11.5683676158757134  1.6667522807933577  1.2804492336188009   F   F   F
 14.4552506405447900  1.6640770520644770  1.2833557843326486   F   F   F
  1.4451850836480984  4.1665431424588935  1.2869790058543467   F   F   F
  4.3411352505084864  4.1684160218517201  1.2727092754489249   F   F   F
  7.2327337036314630  4.1712855846734485  1.2714849637612464   F   F   F
 10.1194219163489674  4.1719759488588348  1.2690171381559270   F   F   F
 13.0090454719434074  4.1696037534763724  1.2792549589911686   F   F   F
 15.9062288085694448  4.1674383168451126  1.2871926122637471   F   F   F
 17.3521242154967439  6.6684766520484589  1.3002920174906996   F   F   F
  2.8894191349654430  6.6722388997935713  1.2711753986761891   F   F   F
  5.7890283581129296  6.6773914740965408  1.3522302094586511   F   F   F
  8.6779475243402846  6.6632183380603660  1.3326153604953661   F   F   F
 11.5575302170112728  6.6814230071954990  1.3569710711774410   F   F   F
 14.4610018347400349  6.6726173558638795  1.2761647102278504   F   F   F
  1.4504204353434464  9.1837354720152931  1.2913301174418486   F   F   F
  4.3391570268301418  9.1833334335658101  1.3034187829848460   F   F   F
  7.2168189338170698  9.1856841403203244  1.3331467711577116   F   F   F
 10.1345728322021316  9.1830212924692507  1.3415917365885308   F   F   F
 13.0140799573655919  9.1827797588702413  1.2928461642549360   F   F   F
 15.9019026943627271  9.1852635116331793  1.2932739751851514   F   F   F
  0.0002039499994310 11.6870287115195861  1.2994831352422211   F   F   F
  2.8942310124095778 11.6896020609429243  1.2805424977353665   F   F   F
  5.7873950450380525 11.6866831670555467  1.2951119649593181   F   F   F
  8.6767216921271544 11.6966369187389443  1.3064271523394926   F   F   F
 11.5661680821143698 11.6872992516153626  1.2916970226557534   F   F   F
 14.4585661179929321 11.6897866894437037  1.2811352378816447   F   F   F
  1.4450530452603898 14.1966878024896204  1.2835180675712210   F   F   F
  4.3440154109998357 14.1956184818835460  1.2810087150688869   F   F   F
  7.2308513168671347 14.1931253355378839  1.2580596399689590   F   F   F
 10.1211173955461948 14.1942513838689059  1.2560936619380483   F   F   F
 13.0082062623537595 14.1960032608136544  1.2825220123402714   F   F   F
 15.9079851618173809 14.1969724231298056  1.2835248875784993   F   F   F
 17.3525982408001163  0.0044130804673778  3.8082174003839424   T   T   T
  2.8926659295379893  0.0034428993524700  3.8110500651147201   T   T   T
  5.7891518328952891  0.0045378990377889  3.7962816031451339   T   T   T
  8.6765057058809401  0.0035360166082531  3.7876651077106334   T   T   T
 11.5626477335461608  0.0058900425066423  3.7966514753403846   T   T   T
 14.4601514907434101  0.0055298442635922  3.8109487976054783   T   T   T
  1.4457502084868199  2.4992961778957694  3.8041824599817411   T   T   T
  4.3387660119845588  2.4996498523557578  3.8054046467232885   T   T   T
  7.2374407866445489  2.5178985262747444  3.8005437228755730   T   T   T
 10.1161684390588444  2.5199526161938017  3.7999485216807996   T   T   T
 13.0152114358383777  2.5019104013328342  3.8072654174520539   T   T   T
 15.9085574792183131  2.5001236551693675  3.8042022964947511   T   T   T
  0.0024774166166559  5.0010195756979350  3.8177754089705287   T   T   T
  2.8872726093292771  5.0027418640544186  3.7986595778580341   T   T   T
  5.7708087951985245  4.9975378401992483  3.8293135162276402   T   T   T
  8.6763655162226563  5.0463658863657983  3.9345489204069568   T   T   T
 11.5852767905197389  5.0001339299478325  3.8325091811747796   T   T   T
 14.4695541512744157  5.0039607516400038  3.8022434195171937   T   T   T
  1.4385634497526867  7.5126073274022298  3.8103714626432921   T   T   T
  4.3007954662549990  7.5200841116204478  3.8247006217628701   T   T   T
  7.1678293242493849  7.5300905292983833  3.7537323464830088   T   T   T
 10.1874670522369861  7.5299730561393465  3.7645156010902912   T   T   T
 13.0554318701631686  7.5218406476277266  3.8246410572092469   T   T   T
 15.9178340137683119  7.5141323504313169  3.8127021782973753   T   T   T
 17.3526160157052480 10.0253952296004343  3.8170101192974961   T   T   T
  2.8780021424281919 10.0308689566320428  3.8168463526308520   T   T   T
  5.7595877287511676 10.0417460587960221  3.8393981471640113   T   T   T
  8.6762458645189966 10.0024383094007856  3.9319055786983008   T   T   T
 11.5944174536483953 10.0424949436520006  3.8336789538222522   T   T   T
 14.4740400253013952 10.0323088059298708  3.8148647067972861   T   T   T
  1.4439903996475734 12.5325015922518972  3.8108121030915201   T   T   T
  4.3326650625888110 12.5374236381767385  3.8112409975965216   T   T   T
  7.2340163781134681 12.5226557786400683  3.8103990247315247   T   T   T
 10.1183574638920977 12.5223661030280464  3.8085373941989253   T   T   T
 13.0186549725469956 12.5401852503291789  3.8111411696978061   T   T   T
 15.9078787190128281 12.5335371830338183  3.8108957018775977   T   T   T
  8.6689159828709368  7.3297926540518343  6.0250764013374134   T   T   T
