Ag
    1.000000000000000     
  17.3524004103179017   0.0000000000000000   0.0000000000000000
   0.0000000000000000  15.0276195719747996   0.0000000000000000
   0.0000000000000000   0.0000000000000000  12.3613626009856006
Ag
73  
Selective dynamics
Direct
  0.9999761213925500  0.1107735295896220  0.1025304555955560 F F F
  0.1669577994150590  0.1106855397882140  0.1038672218221070 F F F
  0.3332988209813190  0.1108674158831920  0.1035309249523810 F F F
  0.5000107627358190  0.1112163845485480  0.1037641059054340 F F F
  0.6666724684958890  0.1109125948265090  0.1035847968343480 F F F
  0.8330404035599340  0.1107345740351210  0.1038199287374940 F F F
  0.0832844476542149  0.2772590244584800  0.1041130373241970 F F F
  0.2501749122805630  0.2773836536044240  0.1029586556539850 F F F
  0.4168145923679130  0.2775746061906260  0.1028596122291460 F F F
  0.5831713006306530  0.2776205458806800  0.1026599719722440 F F F
  0.7496971695171410  0.2774626901823040  0.1034881833244800 F F F
  0.9166587003785051  0.2773185930669300  0.1041303174911410 F F F
  0.9999840831922600  0.4437480347509320  0.1051900230955950 F F F
  0.1665140883475330  0.4439983902864240  0.1028345692710960 F F F
  0.3336154204158820  0.4443412639051160  0.1093916789845510 F F F
  0.5001006961077440  0.4433981247759750  0.1078048920261520 F F F
  0.6660479209630880  0.4446095388025240  0.1097752015679280 F F F
  0.8333718386386120  0.4440235743196300  0.1032381907578780 F F F
  0.0835861552895594  0.6111237663443490  0.1044650302013540 F F F
  0.2500609093972980  0.6110970130420340  0.1054429697645890 F F F
  0.4158974414586400  0.6112534387981730  0.1078478816770100 F F F
  0.5840444314652870  0.6110762418816340  0.1085310559922870 F F F
  0.7499873014471991  0.6110601692363390  0.1045876741898870 F F F
  0.9164093911126731  0.6112254484245060  0.1046222829093320 F F F
  0.0000117534170840  0.7777032586927390  0.1051245867618680 F F F
  0.1667913916214520  0.7778745000134960  0.1035923416430860 F F F
  0.3335212943563020  0.7776802647340230  0.1047709711918050 F F F
  0.5000300527279150  0.7783426285658810  0.1056863385137920 F F F
  0.6665457117527680  0.7777212615503760  0.1044947118170260 F F F
  0.8332314709263930  0.7778867859580459  0.1036402926793440 F F F
  0.0832768384252560  0.9447063611435310  0.1038330570020560 F F F
  0.2503408928033290  0.9446352041248860  0.1036300573341930 F F F
  0.4167061124619740  0.9444692998488480  0.1017735407153780 F F F
  0.5832690092563840  0.9445442317650860  0.1016144985373940 F F F
  0.7496488067794330  0.9446608089073510  0.1037524788924170 F F F
  0.9167599171097010  0.9447253009788670  0.1038336087217570 F F F
  0.9999507114760040  0.0003862942210091  0.2846897834865060 T T T
  0.1668116170417660  0.0002236331340555  0.2852218345607370 T T T
  0.3339334917026160  0.0002651913895022  0.2851678900530890 T T T
  0.4997127754104650  0.0003564194445147  0.2843208769619000 T T T
  0.6656226031778020  0.0005368464260584  0.2850145178292610 T T T
  0.8330581658594410  0.0005262544526445  0.2852093677793520 T T T
  0.0836423966257982  0.1664895972924190  0.2852298911124930 T T T
  0.2505208998818630  0.1667504311813700  0.2858549741926740 T T T
  0.4176161748454850  0.1681842576388920  0.2852052449333440 T T T
  0.5828090055057020  0.1683500421811960  0.2851462482583860 T T T
  0.7499819737779559  0.1668101812946720  0.2860327005829360 T T T
  0.9169200601485490  0.1665859310513510  0.2853397432163620 T T T
  0.0003910434534902  0.3328674855871580  0.2865383545235860 T T T
  0.1667415733177440  0.3331452957416450  0.2853721856440150 T T T
  0.3333797690777230  0.3320475344954450  0.2869939546300270 T T T
  0.5006139491648870  0.3363442486287700  0.2929117493035210 T T T
  0.6675181925245330  0.3322321323699310  0.2873022963131290 T T T
  0.8340382447363910  0.3332910715211310  0.2856307965084350 T T T
  0.0831136972377351  0.4997168596148850  0.2864713718419270 T T T
  0.2473369385087740  0.5004144463898190  0.2867811326881620 T T T
  0.4105933352122410  0.5019884637324380  0.2880773704958130 T T T
  0.5901612442262660  0.5023399000170130  0.2886943093259330 T T T
  0.7532452137988060  0.5008452590966570  0.2866979076132950 T T T
  0.9173895512399139  0.4998516914629290  0.2866204753644940 T T T
  0.9998539012859450  0.6666082593471360  0.2862411150939440 T T T
  0.1654845257604830  0.6674155070901190  0.2865264218510790 T T T
  0.3315797047122120  0.6684382810113900  0.2875061886399380 T T T
  0.4999350780023520  0.6664429092213950  0.2913589370616240 T T T
  0.6684380127556721  0.6689996232331410  0.2873047967042480 T T T
  0.8342221432296379  0.6677646468969060  0.2863646211357460 T T T
  0.0832003629441758  0.8335108151978901  0.2857248811493630 T T T
  0.2495822312804780  0.8342361458713650  0.2860946699596030 T T T
  0.4165808084448200  0.8335966533197020  0.2861531308202170 T T T
  0.5828902473523310  0.8338227039091920  0.2859287570738120 T T T
  0.7498449575427630  0.8347663351891090  0.2860985016482330 T T T
  0.9163049633193550  0.8337501998077100  0.2857110045548550 T T T
  0.5002657994289380  0.4843236376591380  0.4512108799172050 T T T
