EDIFFG = -0.01
POTIM = 1
ISIF = 1
MD_ALGO = 0
NSW = 100
IBRION=3
IOPT=1
MAXSTEP=0.1
POTENTIAL=PYAMFF
