H  Pd H 
 1.0000000000000000
    40.0000000000000000    0.0000000000000000    0.0000000000000000
     0.0000000000000000   40.0000000000000000    0.0000000000000000
     0.0000000000000000    0.0000000000000000   40.0000000000000000
 H   Pd  H  
   1   3   1
Cartesian
 20.9528395179931124 20.1758617195403609 18.5939685206410665
 21.0363745179931101 19.4146347195403628 20.0546385206410669
 19.9302309830626143 20.5805072330725984 21.4060314793589335
 18.9636254820068899 18.9414275902822737 20.0011362814718474
 19.9335445748133750 21.0585724097177263 20.0493856662234933
