Ag
 1.0000000000000000
    17.3524004103179017    0.0000000000000000    0.0000000000000000
     0.0000000000000000   15.0276195719747996    0.0000000000000000
     0.0000000000000000    0.0000000000000000   12.3613626009856006
 Ag 
  73
Selective dynamics
Cartesian
 17.3519860591601898  1.6646624613177332  1.2674161392609207   F   F   F
  2.8971185870756440  1.6633401840559601  1.2839403913000689   F   F   F
  5.7835345979547128  1.6660733488205259  1.2797833037518094   F   F   F
  8.6763869644603933  1.6713175171660357  1.2826657380641409   F   F   F
 11.5683676158757134  1.6667522807933577  1.2804492336188009   F   F   F
 14.4552506405447900  1.6640770520644770  1.2833557843326486   F   F   F
  1.4451850836480984  4.1665431424588935  1.2869790058543467   F   F   F
  4.3411352505084864  4.1684160218517201  1.2727092754489249   F   F   F
  7.2327337036314630  4.1712855846734485  1.2714849637612464   F   F   F
 10.1194219163489674  4.1719759488588348  1.2690171381559270   F   F   F
 13.0090454719434074  4.1696037534763724  1.2792549589911686   F   F   F
 15.9062288085694448  4.1674383168451126  1.2871926122637471   F   F   F
 17.3521242154967439  6.6684766520484589  1.3002920174906996   F   F   F
  2.8894191349654430  6.6722388997935713  1.2711753986761891   F   F   F
  5.7890283581129296  6.6773914740965408  1.3522302094586511   F   F   F
  8.6779475243402846  6.6632183380603660  1.3326153604953661   F   F   F
 11.5575302170112728  6.6814230071954990  1.3569710711774410   F   F   F
 14.4610018347400349  6.6726173558638795  1.2761647102278504   F   F   F
  1.4504204353434464  9.1837354720152931  1.2913301174418486   F   F   F
  4.3391570268301418  9.1833334335658101  1.3034187829848460   F   F   F
  7.2168189338170698  9.1856841403203244  1.3331467711577116   F   F   F
 10.1345728322021316  9.1830212924692507  1.3415917365885308   F   F   F
 13.0140799573655919  9.1827797588702413  1.2928461642549360   F   F   F
 15.9019026943627271  9.1852635116331793  1.2932739751851514   F   F   F
  0.0002039499994310 11.6870287115195861  1.2994831352422211   F   F   F
  2.8942310124095778 11.6896020609429243  1.2805424977353665   F   F   F
  5.7873950450380525 11.6866831670555467  1.2951119649593181   F   F   F
  8.6767216921271544 11.6966369187389443  1.3064271523394926   F   F   F
 11.5661680821143698 11.6872992516153626  1.2916970226557534   F   F   F
 14.4585661179929321 11.6897866894437037  1.2811352378816447   F   F   F
  1.4450530452603898 14.1966878024896204  1.2835180675712210   F   F   F
  4.3440154109998357 14.1956184818835460  1.2810087150688869   F   F   F
  7.2308513168671347 14.1931253355378839  1.2580596399689590   F   F   F
 10.1211173955461948 14.1942513838689059  1.2560936619380483   F   F   F
 13.0082062623537595 14.1960032608136544  1.2825220123402714   F   F   F
 15.9079851618173809 14.1969724231298056  1.2835248875784993   F   F   F
 17.3527611715440102  0.0029919158195431  3.8088602892946160   T   T   T
  2.8925356407699256  0.0009601796202716  3.8112111581205652   T   T   T
  5.7893608202851068  0.0031053258527436  3.7963556707016632   T   T   T
  8.6757258948606175  0.0016156243205191  3.7876695944781473   T   T   T
 11.5627106882592994  0.0041774075126494  3.7965035710609900   T   T   T
 14.4602993312659525  0.0030030908728455  3.8111682550277957   T   T   T
  1.4453366881915746  2.4985276853781109  3.8043704105853657   T   T   T
  4.3366609654874768  2.4964906134993363  3.8062541476009852   T   T   T
  7.2361473828374381  2.5145792396887416  3.8021901392960680   T   T   T
 10.1171687204203966  2.5162012825515849  3.8021614151439285   T   T   T
 13.0170245011036112  2.4983884768526585  3.8079216439028927   T   T   T
 15.9085553296688875  2.4993664548904411  3.8042261557681969   T   T   T
  0.0019624786243017  5.0006930290459897  3.8181547075996254   T   T   T
  2.8849931389764096  5.0007148179270082  3.7990291362007693   T   T   T
  5.7686911451156178  4.9925267713562933  3.8245517849350152   T   T   T
  8.6765456443875859  5.0345614087322899  3.9066511152943306   T   T   T
 11.5860287417681569  4.9951046828979546  3.8277688579614750   T   T   T
 14.4704691917317838  5.0019874122729364  3.8026123936347362   T   T   T
  1.4374084297175043  7.5124794745575825  3.8104181914868129   T   T   T
  4.3014536982957390  7.5167025880739615  3.8254814091894707   T   T   T
  7.1655966581305020  7.5089816704561638  3.7579293529966851   T   T   T
 10.1882678327706557  7.5089597890495492  3.7681068730490619   T   T   T
 13.0533446932933970  7.5183709311597662  3.8253490173605558   T   T   T
 15.9184966460621951  7.5137860695261987  3.8125001921777386   T   T   T
 17.3523003774430506 10.0241142702195241  3.8171361832648589   T   T   T
  2.8794327602651446 10.0297348829504465  3.8167479044157191   T   T   T
  5.7619585228086851 10.0349130833266624  3.8438191862406730   T   T   T
  8.6762645594095176  9.9949505565497034  3.9565373624665758   T   T   T
 11.5916986088225435 10.0357674106426558  3.8378008491740152   T   T   T
 14.4729930110190406 10.0309460871845211  3.8147447809658948   T   T   T
  1.4446793493461687 12.5314328220984361  3.8109891015125528   T   T   T
  4.3344488966014811 12.5341038667864115  3.8108888967104271   T   T   T
  7.2345877591684209 12.5191544474995204  3.8082247328102063   T   T   T
 10.1183115565441941 12.5190037882714726  3.8066082932134053   T   T   T
 13.0173307237009901 12.5369524997490362  3.8108859507375330   T   T   T
 15.9073935487767564 12.5319506919517032  3.8108833234039530   T   T   T
  8.6691351888295376  7.7600835128813292  6.0344807497791102   T   T   T
