Ag
    1.000000000000000     
  17.3524004103179017   0.0000000000000000   0.0000000000000000
   0.0000000000000000  15.0276195719747996   0.0000000000000000
   0.0000000000000000   0.0000000000000000  12.3613626009856006
Ag
73  
Selective dynamics
Direct
  0.9999761213925500  0.1107735295896220  0.1025304555955560 F F F
  0.1669577994150590  0.1106855397882140  0.1038672218221070 F F F
  0.3332988209813190  0.1108674158831920  0.1035309249523810 F F F
  0.5000107627358190  0.1112163845485480  0.1037641059054340 F F F
  0.6666724684958890  0.1109125948265090  0.1035847968343480 F F F
  0.8330404035599340  0.1107345740351210  0.1038199287374940 F F F
  0.0832844476542149  0.2772590244584800  0.1041130373241970 F F F
  0.2501749122805630  0.2773836536044240  0.1029586556539850 F F F
  0.4168145923679130  0.2775746061906260  0.1028596122291460 F F F
  0.5831713006306530  0.2776205458806800  0.1026599719722440 F F F
  0.7496971695171410  0.2774626901823040  0.1034881833244800 F F F
  0.9166587003785051  0.2773185930669300  0.1041303174911410 F F F
  0.9999840831922600  0.4437480347509320  0.1051900230955950 F F F
  0.1665140883475330  0.4439983902864240  0.1028345692710960 F F F
  0.3336154204158820  0.4443412639051160  0.1093916789845510 F F F
  0.5001006961077440  0.4433981247759750  0.1078048920261520 F F F
  0.6660479209630880  0.4446095388025240  0.1097752015679280 F F F
  0.8333718386386120  0.4440235743196300  0.1032381907578780 F F F
  0.0835861552895594  0.6111237663443490  0.1044650302013540 F F F
  0.2500609093972980  0.6110970130420340  0.1054429697645890 F F F
  0.4158974414586400  0.6112534387981730  0.1078478816770100 F F F
  0.5840444314652870  0.6110762418816340  0.1085310559922870 F F F
  0.7499873014471991  0.6110601692363390  0.1045876741898870 F F F
  0.9164093911126731  0.6112254484245060  0.1046222829093320 F F F
  0.0000117534170840  0.7777032586927390  0.1051245867618680 F F F
  0.1667913916214520  0.7778745000134960  0.1035923416430860 F F F
  0.3335212943563020  0.7776802647340230  0.1047709711918050 F F F
  0.5000300527279150  0.7783426285658810  0.1056863385137920 F F F
  0.6665457117527680  0.7777212615503760  0.1044947118170260 F F F
  0.8332314709263930  0.7778867859580459  0.1036402926793440 F F F
  0.0832768384252560  0.9447063611435310  0.1038330570020560 F F F
  0.2503408928033290  0.9446352041248860  0.1036300573341930 F F F
  0.4167061124619740  0.9444692998488480  0.1017735407153780 F F F
  0.5832690092563840  0.9445442317650860  0.1016144985373940 F F F
  0.7496488067794330  0.9446608089073510  0.1037524788924170 F F F
  0.9167599171097010  0.9447253009788670  0.1038336087217570 F F F
  0.9999758721932750  0.0002403245139462  0.2847490347895350 T T T
  0.1667902624921070  0.0000501103424853  0.2852476403777120 T T T
  0.3338120300880050  0.0002729477491243  0.2852744764704620 T T T
  0.4998339198444980  0.0002891138529293  0.2843967087149370 T T T
  0.6659101795500750  0.0004431819663893  0.2851669364610600 T T T
  0.8331376745630050  0.0002359816955035  0.2852370133046310 T T T
  0.0834645352168977  0.1665352326368390  0.2851480742349680 T T T
  0.2502603412552990  0.1665625023377830  0.2858066276463090 T T T
  0.4172173742128750  0.1676352176508050  0.2853446841626450 T T T
  0.5830114977176000  0.1677636759988060  0.2852575852149640 T T T
  0.7500682027002130  0.1665802011852480  0.2859210929317020 T T T
  0.9168497320113640  0.1665945020064970  0.2854098800551910 T T T
  0.0002410211635038  0.3329212660997600  0.2863856503851280 T T T
  0.1665745744645690  0.3331099504932380  0.2852513552907750 T T T
  0.3331532401769980  0.3319609823097950  0.2867065763582200 T T T
  0.5003560545670640  0.3345723094453130  0.2906081885342860 T T T
  0.6673495095164910  0.3320924711592920  0.2869999488017640 T T T
  0.8338659833308810  0.3332272278613710  0.2854993051214120 T T T
  0.0830604609976007  0.4999313846394740  0.2864482211908100 T T T
  0.2476675305213900  0.5002979679469850  0.2867408890969190 T T T
  0.4115804412408860  0.5006205776521070  0.2889063602762430 T T T
  0.5887809080373360  0.5008617308738290  0.2895477132168340 T T T
  0.7526501651178850  0.5006394855428981  0.2866792291624380 T T T
  0.9172310452195021  0.5000225549993400  0.2865799372985340 T T T
  0.9998982281849180  0.6665666311824550  0.2863613982461430 T T T
  0.1657321187147790  0.6672660375554710  0.2866255264454200 T T T
  0.3320245708193570  0.6680657153590770  0.2877317853032790 T T T
  0.4999600177785910  0.6680806207985980  0.2907215385132600 T T T
  0.6680544380106990  0.6684474759171690  0.2875143723439630 T T T
  0.8341042086396580  0.6674592966356490  0.2864566138122340 T T T
  0.0833035023701640  0.8335318759805050  0.2857385851747840 T T T
  0.2496824275409390  0.8339352962935110  0.2861444132553070 T T T
  0.4165202039848880  0.8341145585768290  0.2861312792380130 T T T
  0.5831999162679790  0.8342324826609659  0.2857986685344330 T T T
  0.7499865899414000  0.8342838062562590  0.2861499892159930 T T T
  0.9164041904052100  0.8336737898869020  0.2857645640187200 T T T
  0.4999171020330310  0.5122695759094210  0.4511550661941400 T T T
