H  N 
 1.0000000000000000
    10.0000000000000000    0.0000000000000000    0.0000000000000000
     0.0000000000000000   10.0000000000000000    0.0000000000000000
     0.0000000000000000    0.0000000000000000   10.0000000000000000
 H   N  
   3   1
Cartesian
  4.7999999999999989  5.8397309999999960  4.8281919999999996
  5.6138309999999967  4.4301350000000008  4.8281919999999996
  3.9861690000000025  4.4301350000000008  4.8281919999999996
  4.7999999999999989  4.8999999999999986  5.2164889999999984
