Ag O  Re
 1.0000000000000000
    17.4133092922437527    0.0000000000000000    0.0000000000000000
    -8.7066546461218746   15.0803682110387118    0.0000000000000000
     0.0000000000000000    0.0000000000000000   30.1089537498770135
 Ag  O   Re 
 144  14   7
Selective dynamics
Cartesian
  0.0000000000000000  0.0000000000000000  0.1000000000000321   F   F   F
 -1.4511091076869584  2.5133947018397498  0.1000000000000321   F   F   F
  1.4511091076869589  2.5133947018397498  0.1000000000000321   F   F   F
  2.9022182153739173  0.0000000000000000  0.1000000000000321   F   F   F
  2.9022182153739169  1.6755964678932382  2.4696512499591425   F   F   F
  1.4511091076869582  4.1889911697329882  2.4696512499591425   F   F   F
 -1.4511091076869593  4.1889911697329882  2.4696512499591425   F   F   F
 -0.0000000000000006  1.6755964678932382  2.4696512499591425   F   F   F
 -0.0047208744502204  3.3359049885198959  4.8067517268278834   T   T   T
  1.4522600409780875  0.8258690159974262  4.8193388726068704   T   T   T
  4.3514491710819865  0.8394310447269955  4.8339125109694736   T   T   T
  2.9027992114064363  3.3553840989666925  4.8643886959241147   T   T   T
  2.8706986007606408  4.9525607351954219  7.3584807178581029   T   T   T
  4.4025633065665719  2.4671288176236015  7.2605503154081230   T   T   T
  1.4109116918386859  2.4326580039060497  7.1936377542265708   T   T   T
 -5.8949604580875157 15.2041078326897878  7.2478698021503671   T   T   T
 -2.9022182153739786  5.0267894036796061  0.1000000000000321   F   F   F
 -4.3533273230609373  7.5401841055193559  0.1000000000000321   F   F   F
 -1.4511091076870200  7.5401841055193559  0.1000000000000321   F   F   F
 -0.0000000000000615  5.0267894036796061  0.1000000000000321   F   F   F
 -0.0000000000000004  6.7023858715727380  2.4696512499591425   F   F   F
 -1.4511091076870202  9.2157805734125944  2.4696512499591425   F   F   F
 -4.3533273230609373  9.2157805734125944  2.4696512499591425   F   F   F
 -2.9022182153739178  6.7023858715727380  2.4696512499591425   F   F   F
 -2.9030272254037843  8.3841441149696667  4.8270595528865279   T   T   T
 -1.4667303275871828  5.8682827538619309  4.7968443326385755   T   T   T
  1.4572195762135787  5.8639682861384745  4.8509989840664183   T   T   T
  0.0273579424267625  8.3567557375553942  4.8640883116413338   T   T   T
 -0.0327574778543500 10.0723472931858584  7.2246748259982070   T   T   T
  1.5373742436571192  7.5494353433363983  7.3761683019864925   T   T   T
 -1.4796772130147891  7.5613186208916501  7.2254634886341309   T   T   T
 -0.0855582484207922  4.9578425633384420  7.1248465455762506   T   T   T
 -5.8044364307478959 10.0535788073591057  0.1000000000000321   F   F   F
 -7.2555455384349159 12.5669735091989629  0.1000000000000321   F   F   F
 -4.3533273230609986 12.5669735091989629  0.1000000000000321   F   F   F
 -2.9022182153739786 10.0535788073591057  0.1000000000000321   F   F   F
 -2.9022182153739786 11.7291752752523433  2.4696512499591425   F   F   F
 -4.3533273230609373 14.2425699770920922  2.4696512499591425   F   F   F
 -7.2555455384348546 14.2425699770920922  2.4696512499591425   F   F   F
 -5.8044364307478959 11.7291752752523433  2.4696512499591425   F   F   F
 -5.7976808292120339 13.3899198080281554  4.8227304282982288   T   T   T
 -4.3474781289183007 10.8959996379942314  4.8384159802657445   T   T   T
 -1.4582572690349243 10.8934284126160428  4.8233953062306201   T   T   T
 -2.9124391021079390 13.4099538443538648  4.8408238789700002   T   T   T
 -3.0064181957698572 15.2114963123416622  7.3008689862013050   T   T   T
 -1.4609349300514962 12.5675808817190742  7.2977661134023375   T   T   T
 -4.3499072008126518 12.5491180393759176  7.3383623314542508   T   T   T
 -2.9120796234371777 10.0577108660160786  7.3125854836786415   T   T   T
  5.8044364307479590  0.0000000000000000  0.1000000000000321   F   F   F
  4.3533273230610003  2.5133947018397498  0.1000000000000321   F   F   F
  7.2555455384349177  2.5133947018397498  0.1000000000000321   F   F   F
  8.7066546461218763  0.0000000000000000  0.1000000000000321   F   F   F
  8.7066546461218763  1.6755964678932382  2.4696512499591425   F   F   F
  7.2555455384349168  4.1889911697329882  2.4696512499591425   F   F   F
  4.3533273230608751  4.1889911697329882  2.4696512499591425   F   F   F
  5.8044364307478338  1.6755964678932382  2.4696512499591425   F   F   F
  5.7969445899105567  3.3504986871848992  4.7946102906662063   T   T   T
  7.2482076343160911  0.8382550277775125  4.8347414120319545   T   T   T
 10.1510804971794446  0.8436824260172938  4.8300357739274258   T   T   T
  8.6874794683818717  3.3407376047231012  4.8385260404472952   T   T   T
  8.7300833333439947  5.0289676203584808  7.2338319166842151   T   T   T
 10.1528091809466208  2.5101147270949582  7.2661585564821198   T   T   T
  7.2488271386815599  2.5093529456243711  7.2816966799202154   T   T   T
  8.7033014534161275  0.0118821313752458  7.2596583388876352   T   T   T
  2.9022182153739804  5.0267894036796061  0.1000000000000321   F   F   F
  1.4511091076870217  7.5401841055193559  0.1000000000000321   F   F   F
  4.3533273230609391  7.5401841055193559  0.1000000000000321   F   F   F
  5.8044364307478977  5.0267894036796061  0.1000000000000321   F   F   F
  5.8044364307479590  6.7023858715727380  2.4696512499591425   F   F   F
  4.3533273230609391  9.2157805734125944  2.4696512499591425   F   F   F
  1.4511091076868972  9.2157805734125944  2.4696512499591425   F   F   F
  2.9022182153739169  6.7023858715727380  2.4696512499591425   F   F   F
  2.8903688691440368  8.3930696312096273  4.8158342091702586   T   T   T
  4.3356274716096745  5.8575768078591013  4.8106448033834726   T   T   T
  7.2506580971091221  5.8758939373606625  4.8315610519293113   T   T   T
  5.8118516752218241  8.3899087381573292  4.8366911525958942   T   T   T
  5.8302626450999755 10.1165007040577475  7.2823421476891195   T   T   T
  7.2986686947430606  7.5841992091813415  7.2435354177045497   T   T   T
  4.3800275754615292  7.5744156443495152  7.1839407058978821   T   T   T
  5.7956865441168395  5.0197289110046164  7.1766602841752656   T   T   T
  0.0000000000000633 10.0535788073591057  0.1000000000000321   F   F   F
 -1.4511091076869571 12.5669735091989629  0.1000000000000321   F   F   F
  1.4511091076869602 12.5669735091989629  0.1000000000000321   F   F   F
  2.9022182153739804 10.0535788073591057  0.1000000000000321   F   F   F
  2.9022182153739804 11.7291752752523433  2.4696512499591425   F   F   F
  1.4511091076870219 14.2425699770920922  2.4696512499591425   F   F   F
 -1.4511091076870197 14.2425699770920922  2.4696512499591425   F   F   F
 -0.0000000000000613 11.7291752752523433  2.4696512499591425   F   F   F
 -0.0112530177796798 13.4025816800034843  4.8227516954316352   T   T   T
  1.4489287303349931 10.9007960516089160  4.8200301531203733   T   T   T
  4.3536805610207825 10.8940363011235899  4.8432213632836350   T   T   T
  2.8949222515372695 13.4179113921753839  4.8256290297148858   T   T   T
 11.5994150734540149  0.0166326125571226  7.3176253131202591   T   T   T
  4.3451627765019518 12.6266590260768226  7.2519360940365711   T   T   T
  1.4313721474499446 12.6160381457475967  7.2599834995042327   T   T   T
  2.8969263646194170 10.1228902624579025  7.2294614944355589   T   T   T
 11.6088728614957937  0.0000000000000000  0.1000000000000321   F   F   F
 10.1577637538088350  2.5133947018397498  0.1000000000000321   F   F   F
 13.0599819691828767  2.5133947018397498  0.1000000000000321   F   F   F
 14.5110910768698353  0.0000000000000000  0.1000000000000321   F   F   F
 14.5110910768697110  1.6755964678932382  2.4696512499591425   F   F   F
 13.0599819691827523  4.1889911697329882  2.4696512499591425   F   F   F
 10.1577637538088350  4.1889911697329882  2.4696512499591425   F   F   F
 11.6088728614957937  1.6755964678932382  2.4696512499591425   F   F   F
 11.6066776594302734  3.3520865766251435  4.8309830603309205   T   T   T
 13.0514777776300370  0.8422404346980551  4.8417743343011894   T   T   T
 15.9573070263424039  0.8261613226043336  4.8210708802969080   T   T   T
 14.4992795748524443  3.3480071651715888  4.8218860299394297   T   T   T
 14.6518334819123908  5.0099880117843467  7.2446541883460451   T   T   T
 16.0962530179707812  2.4702165097775795  7.2381423409806080   T   T   T
 13.0320984114056397  2.5086526447354736  7.3231114103200472   T   T   T
 14.4899929872312718  0.0028816912875901  7.3085579030655650   T   T   T
  8.7066546461218142  5.0267894036796061  0.1000000000000321   F   F   F
  7.2555455384348564  7.5401841055193559  0.1000000000000321   F   F   F
 10.1577637538088972  7.5401841055193559  0.1000000000000321   F   F   F
 11.6088728614958558  5.0267894036796061  0.1000000000000321   F   F   F
 11.6088728614957937  6.7023858715727380  2.4696512499591425   F   F   F
 10.1577637538087728  9.2157805734125944  2.4696512499591425   F   F   F
  7.2555455384348564  9.2157805734125944  2.4696512499591425   F   F   F
  8.7066546461218763  6.7023858715727380  2.4696512499591425   F   F   F
  8.7141397125926314  8.3807257664065702  4.8257739164138469   T   T   T
 10.1578049056131086  5.8664839023996391  4.8258074615937048   T   T   T
 13.0502537076793299  5.8725929858851273  4.8243498538137013   T   T   T
 11.6128366836596815  8.3934369557877169  4.8282644845083711   T   T   T
 -5.7872327191347388 10.0591135688031716  7.3215048550436581   T   T   T
 -4.3515893619761696  7.5459663722227761  7.2964935674884295   T   T   T
 10.2019964760156885  7.5519625497191605  7.2598596950496415   T   T   T
 11.5994568347694287  5.0238958070120860  7.2946475539063051   T   T   T
  5.8044364307478977 10.0535788073591057  0.1000000000000321   F   F   F
  4.3533273230608778 12.5669735091989629  0.1000000000000321   F   F   F
  7.2555455384349195 12.5669735091989629  0.1000000000000321   F   F   F
  8.7066546461219403 10.0535788073591057  0.1000000000000321   F   F   F
  8.7066546461218142 11.7291752752523433  2.4696512499591425   F   F   F
  7.2555455384348564 14.2425699770920922  2.4696512499591425   F   F   F
  4.3533273230609391 14.2425699770920922  2.4696512499591425   F   F   F
  5.8044364307478977 11.7291752752523433  2.4696512499591425   F   F   F
  5.8058355721695651 13.4085191468725498  4.8250791583169308   T   T   T
  7.2515059036269180 10.8938740033506907  4.8353029147244566   T   T   T
 10.1731329350240483 10.8954945472745521  4.8268436779816106   T   T   T
  8.7187964371619984 13.3878113609456175  4.8193678310898820   T   T   T
  8.7822630034855216 15.2200032765536193  7.2549955102302688   T   T   T
 -7.2397025254602489 12.5658550518320880  7.3081500626554838   T   T   T
  7.2639259629146906 12.5977220518593089  7.2669402120688353   T   T   T
  8.7516534629300242 10.0903788311236546  7.2407296887925243   T   T   T
  5.4246349032153400 10.1121754687103547  9.6227216615276134   T   T   T
  7.6785257315218711  7.3580356308066319  9.5925455330508385   T   T   T
  5.3178939554236369  5.4277852489430716  9.8061794735789611   T   T   T
  1.9359252573326873  9.9416512521347382  9.5969321454770284   T   T   T
 -0.0620907735466908  6.1429406625995497  9.1825804518838225   T   T   T
  1.5252364078380176  2.6679019364637617  9.4661272724937753   T   T   T
  6.3631069537861613  1.1687771184779381 10.3326687778102286   T   T   T
  4.2613958050486982  3.1654089155615153 10.1361838979230896   T   T   T
  1.0513480722848108  7.5197952777164483 11.8407313558032126   T   T   T
  6.7026846984950916  6.5887859162622924 12.2212975290004504   T   T   T
  7.4641380758972931  3.8384571050481369 10.1698353694808237   T   T   T
  1.4895733040892627  4.6680173121776258 11.6052367801687897   T   T   T
  2.2413580852547725  8.3160042113689023 12.4929765486039486   T   T   T
  5.0336449604864777  9.2126793427464069 12.4109967674005119   T   T   T
  2.5344398625653053  3.9208463379953735 10.1912360167964113   T   T   T
  1.2777975587060015  6.1393003555863626 10.3569846849444023   T   T   T
  4.8595401955160051  8.8582816800931177 10.7235773013684330   T   T   T
  6.2884686105240313  6.8274851814909683 10.5624636620766683   T   T   T
  6.1046824630186984  2.8048219372372363  9.8712364264010546   T   T   T
  2.3099984767295605  8.5301211427027646 10.5734919261271703   T   T   T
  3.6174594658234365  6.5061575607015785  9.6389360882464761   T   T   T
Cartesian
  0.0000000000000000  0.0000000000000000  0.0000000000000000
  0.0000000000000000  0.0000000000000000  0.0000000000000000
  0.0000000000000000  0.0000000000000000  0.0000000000000000
  0.0000000000000000  0.0000000000000000  0.0000000000000000
  0.0000000000000000  0.0000000000000000  0.0000000000000000
  0.0000000000000000  0.0000000000000000  0.0000000000000000
  0.0000000000000000  0.0000000000000000  0.0000000000000000
  0.0000000000000000  0.0000000000000000  0.0000000000000000
  0.0000000000000000  0.0000000000000000  0.0000000000000000
  0.0000000000000000  0.0000000000000000  0.0000000000000000
  0.0000000000000000  0.0000000000000000  0.0000000000000000
  0.0000000000000000  0.0000000000000000  0.0000000000000000
  0.0000000000000000  0.0000000000000000  0.0000000000000000
  0.0000000000000000  0.0000000000000000  0.0000000000000000
  0.0000000000000000  0.0000000000000000  0.0000000000000000
  0.0000000000000000  0.0000000000000000  0.0000000000000000
  0.0000000000000000  0.0000000000000000  0.0000000000000000
  0.0000000000000000  0.0000000000000000  0.0000000000000000
  0.0000000000000000  0.0000000000000000  0.0000000000000000
  0.0000000000000000  0.0000000000000000  0.0000000000000000
  0.0000000000000000  0.0000000000000000  0.0000000000000000
  0.0000000000000000  0.0000000000000000  0.0000000000000000
  0.0000000000000000  0.0000000000000000  0.0000000000000000
  0.0000000000000000  0.0000000000000000  0.0000000000000000
  0.0000000000000000  0.0000000000000000  0.0000000000000000
  0.0000000000000000  0.0000000000000000  0.0000000000000000
  0.0000000000000000  0.0000000000000000  0.0000000000000000
  0.0000000000000000  0.0000000000000000  0.0000000000000000
  0.0000000000000000  0.0000000000000000  0.0000000000000000
  0.0000000000000000  0.0000000000000000  0.0000000000000000
  0.0000000000000000  0.0000000000000000  0.0000000000000000
  0.0000000000000000  0.0000000000000000  0.0000000000000000
  0.0000000000000000  0.0000000000000000  0.0000000000000000
  0.0000000000000000  0.0000000000000000  0.0000000000000000
  0.0000000000000000  0.0000000000000000  0.0000000000000000
  0.0000000000000000  0.0000000000000000  0.0000000000000000
  0.0000000000000000  0.0000000000000000  0.0000000000000000
  0.0000000000000000  0.0000000000000000  0.0000000000000000
  0.0000000000000000  0.0000000000000000  0.0000000000000000
  0.0000000000000000  0.0000000000000000  0.0000000000000000
  0.0000000000000000  0.0000000000000000  0.0000000000000000
  0.0000000000000000  0.0000000000000000  0.0000000000000000
  0.0000000000000000  0.0000000000000000  0.0000000000000000
  0.0000000000000000  0.0000000000000000  0.0000000000000000
  0.0000000000000000  0.0000000000000000  0.0000000000000000
  0.0000000000000000  0.0000000000000000  0.0000000000000000
  0.0000000000000000  0.0000000000000000  0.0000000000000000
  0.0000000000000000  0.0000000000000000  0.0000000000000000
  0.0000000000000000  0.0000000000000000  0.0000000000000000
  0.0000000000000000  0.0000000000000000  0.0000000000000000
  0.0000000000000000  0.0000000000000000  0.0000000000000000
  0.0000000000000000  0.0000000000000000  0.0000000000000000
  0.0000000000000000  0.0000000000000000  0.0000000000000000
  0.0000000000000000  0.0000000000000000  0.0000000000000000
  0.0000000000000000  0.0000000000000000  0.0000000000000000
  0.0000000000000000  0.0000000000000000  0.0000000000000000
  0.0000000000000000  0.0000000000000000  0.0000000000000000
  0.0000000000000000  0.0000000000000000  0.0000000000000000
  0.0000000000000000  0.0000000000000000  0.0000000000000000
  0.0000000000000000  0.0000000000000000  0.0000000000000000
  0.0000000000000000  0.0000000000000000  0.0000000000000000
  0.0000000000000000  0.0000000000000000  0.0000000000000000
  0.0000000000000000  0.0000000000000000  0.0000000000000000
  0.0000000000000000  0.0000000000000000  0.0000000000000000
  0.0000000000000000  0.0000000000000000  0.0000000000000000
  0.0000000000000000  0.0000000000000000  0.0000000000000000
  0.0000000000000000  0.0000000000000000  0.0000000000000000
  0.0000000000000000  0.0000000000000000  0.0000000000000000
  0.0000000000000000  0.0000000000000000  0.0000000000000000
  0.0000000000000000  0.0000000000000000  0.0000000000000000
  0.0000000000000000  0.0000000000000000  0.0000000000000000
  0.0000000000000000  0.0000000000000000  0.0000000000000000
  0.0000000000000000  0.0000000000000000  0.0000000000000000
  0.0000000000000000  0.0000000000000000  0.0000000000000000
  0.0000000000000000  0.0000000000000000  0.0000000000000000
  0.0000000000000000  0.0000000000000000  0.0000000000000000
  0.0000000000000000  0.0000000000000000  0.0000000000000000
  0.0000000000000000  0.0000000000000000  0.0000000000000000
  0.0000000000000000  0.0000000000000000  0.0000000000000000
  0.0000000000000000  0.0000000000000000  0.0000000000000000
  0.0000000000000000  0.0000000000000000  0.0000000000000000
  0.0000000000000000  0.0000000000000000  0.0000000000000000
  0.0000000000000000  0.0000000000000000  0.0000000000000000
  0.0000000000000000  0.0000000000000000  0.0000000000000000
  0.0000000000000000  0.0000000000000000  0.0000000000000000
  0.0000000000000000  0.0000000000000000  0.0000000000000000
  0.0000000000000000  0.0000000000000000  0.0000000000000000
  0.0000000000000000  0.0000000000000000  0.0000000000000000
  0.0000000000000000  0.0000000000000000  0.0000000000000000
  0.0000000000000000  0.0000000000000000  0.0000000000000000
  0.0000000000000000  0.0000000000000000  0.0000000000000000
  0.0000000000000000  0.0000000000000000  0.0000000000000000
  0.0000000000000000  0.0000000000000000  0.0000000000000000
  0.0000000000000000  0.0000000000000000  0.0000000000000000
  0.0000000000000000  0.0000000000000000  0.0000000000000000
  0.0000000000000000  0.0000000000000000  0.0000000000000000
  0.0000000000000000  0.0000000000000000  0.0000000000000000
  0.0000000000000000  0.0000000000000000  0.0000000000000000
  0.0000000000000000  0.0000000000000000  0.0000000000000000
  0.0000000000000000  0.0000000000000000  0.0000000000000000
  0.0000000000000000  0.0000000000000000  0.0000000000000000
  0.0000000000000000  0.0000000000000000  0.0000000000000000
  0.0000000000000000  0.0000000000000000  0.0000000000000000
  0.0000000000000000  0.0000000000000000  0.0000000000000000
  0.0000000000000000  0.0000000000000000  0.0000000000000000
  0.0000000000000000  0.0000000000000000  0.0000000000000000
  0.0000000000000000  0.0000000000000000  0.0000000000000000
  0.0000000000000000  0.0000000000000000  0.0000000000000000
  0.0000000000000000  0.0000000000000000  0.0000000000000000
  0.0000000000000000  0.0000000000000000  0.0000000000000000
  0.0000000000000000  0.0000000000000000  0.0000000000000000
  0.0000000000000000  0.0000000000000000  0.0000000000000000
  0.0000000000000000  0.0000000000000000  0.0000000000000000
  0.0000000000000000  0.0000000000000000  0.0000000000000000
  0.0000000000000000  0.0000000000000000  0.0000000000000000
  0.0000000000000000  0.0000000000000000  0.0000000000000000
  0.0000000000000000  0.0000000000000000  0.0000000000000000
  0.0000000000000000  0.0000000000000000  0.0000000000000000
  0.0000000000000000  0.0000000000000000  0.0000000000000000
  0.0000000000000000  0.0000000000000000  0.0000000000000000
  0.0000000000000000  0.0000000000000000  0.0000000000000000
  0.0000000000000000  0.0000000000000000  0.0000000000000000
  0.0000000000000000  0.0000000000000000  0.0000000000000000
  0.0000000000000000  0.0000000000000000  0.0000000000000000
  0.0000000000000000  0.0000000000000000  0.0000000000000000
  0.0000000000000000  0.0000000000000000  0.0000000000000000
  0.0000000000000000  0.0000000000000000  0.0000000000000000
  0.0000000000000000  0.0000000000000000  0.0000000000000000
  0.0000000000000000  0.0000000000000000  0.0000000000000000
  0.0000000000000000  0.0000000000000000  0.0000000000000000
  0.0000000000000000  0.0000000000000000  0.0000000000000000
  0.0000000000000000  0.0000000000000000  0.0000000000000000
  0.0000000000000000  0.0000000000000000  0.0000000000000000
  0.0000000000000000  0.0000000000000000  0.0000000000000000
  0.0000000000000000  0.0000000000000000  0.0000000000000000
  0.0000000000000000  0.0000000000000000  0.0000000000000000
  0.0000000000000000  0.0000000000000000  0.0000000000000000
  0.0000000000000000  0.0000000000000000  0.0000000000000000
  0.0000000000000000  0.0000000000000000  0.0000000000000000
  0.0000000000000000  0.0000000000000000  0.0000000000000000
  0.0000000000000000  0.0000000000000000  0.0000000000000000
  0.0000000000000000  0.0000000000000000  0.0000000000000000
  0.0000000000000000  0.0000000000000000  0.0000000000000000
  0.0000000000000000  0.0000000000000000  0.0000000000000000
  0.0000000000000000  0.0000000000000000  0.0000000000000000
  0.0000000000000000  0.0000000000000000  0.0000000000000000
  0.0000000000000000  0.0000000000000000  0.0000000000000000
  0.0000000000000000  0.0000000000000000  0.0000000000000000
  0.0000000000000000  0.0000000000000000  0.0000000000000000
  0.0000000000000000  0.0000000000000000  0.0000000000000000
  0.0000000000000000  0.0000000000000000  0.0000000000000000
  0.0000000000000000  0.0000000000000000  0.0000000000000000
  0.0000000000000000  0.0000000000000000  0.0000000000000000
  0.0000000000000000  0.0000000000000000  0.0000000000000000
  0.0000000000000000  0.0000000000000000  0.0000000000000000
  0.0000000000000000  0.0000000000000000  0.0000000000000000
  0.0000000000000000  0.0000000000000000  0.0000000000000000
  0.0000000000000000  0.0000000000000000  0.0000000000000000
  0.0000000000000000  0.0000000000000000  0.0000000000000000
  0.0000000000000000  0.0000000000000000  0.0000000000000000
  0.0000000000000000  0.0000000000000000  0.0000000000000000
  0.0000000000000000  0.0000000000000000  0.0000000000000000
  0.0000000000000000  0.0000000000000000  0.0000000000000000
  0.0000000000000000  0.0000000000000000  0.0000000000000000
  0.0000000000000000  0.0000000000000000  0.0000000000000000
