Ag O  Re
 1.0000000000000000
    17.4133092922437527    0.0000000000000000    0.0000000000000000
    -8.7066546461218746   15.0803682110387118    0.0000000000000000
     0.0000000000000000    0.0000000000000000   30.1089537498770135
 Ag  O   Re 
 144  14   7
Selective dynamics
Cartesian
  0.0000000000000000  0.0000000000000000  0.0999999999999934   F   F   F
 -1.4511091076869584  2.5133947018397498  0.0999999999999934   F   F   F
  1.4511091076869589  2.5133947018397498  0.0999999999999934   F   F   F
  2.9022182153739173  0.0000000000000000  0.0999999999999934   F   F   F
  2.9022182153739169  1.6755964678932382  2.4696512499590528   F   F   F
  1.4511091076869582  4.1889911697329882  2.4696512499590528   F   F   F
 -1.4511091076869593  4.1889911697329882  2.4696512499590528   F   F   F
 -0.0000000000000006  1.6755964678932382  2.4696512499590528   F   F   F
  0.0065347648304372  3.3602058977409963  4.8687996526816804   T   T   T
  1.4521089289567715  0.8466420326243851  4.8545965638582969   T   T   T
  4.3492412107455731  0.8560149109624394  4.8638813304544941   T   T   T
  2.8970749873498618  3.3730767534470214  4.9152485236502059   T   T   T
  2.8167114923857457  4.9393961094112857  7.4694204922584557   T   T   T
  4.3584261755073719  2.4901584229153628  7.2876502236827267   T   T   T
  1.4291753025962028  2.4465186347440500  7.2691841109491859   T   T   T
  2.9030175849173987 -0.0411481943518391  7.2356713684110874   T   T   T
 -2.9022182153739786  5.0267894036796061  0.0999999999999934   F   F   F
 -4.3533273230609373  7.5401841055193559  0.0999999999999934   F   F   F
 -1.4511091076870200  7.5401841055193559  0.0999999999999934   F   F   F
 -0.0000000000000615  5.0267894036796061  0.0999999999999934   F   F   F
 -0.0000000000000004  6.7023858715727380  2.4696512499590528   F   F   F
 -1.4511091076870202  9.2157805734125944  2.4696512499590528   F   F   F
 -4.3533273230609373  9.2157805734125944  2.4696512499590528   F   F   F
 -2.9022182153739178  6.7023858715727380  2.4696512499590528   F   F   F
 -2.8777787308691924  8.3715695839422715  4.8696110281933400   T   T   T
 -1.4448781638091059  5.8672476023250359  4.8619525870033575   T   T   T
  1.4626562087384989  5.8697475745039105  4.9203551909757790   T   T   T
  0.0376506481519617  8.3554443709227471  4.9174747211875696   T   T   T
 -0.0205312604122440 10.0781939396603537  7.2370906244377835   T   T   T
  1.5792289185185922  7.5726191076103646  7.3891878474267694   T   T   T
 -1.4549238352829721  7.5534761551669591  7.2798879877721623   T   T   T
 -0.0721233469330407  4.9643447729576966  7.2287466591040657   T   T   T
 -5.8044364307478959 10.0535788073591057  0.0999999999999934   F   F   F
 -7.2555455384349159 12.5669735091989629  0.0999999999999934   F   F   F
 -4.3533273230609986 12.5669735091989629  0.0999999999999934   F   F   F
 -2.9022182153739786 10.0535788073591057  0.0999999999999934   F   F   F
 -2.9022182153739786 11.7291752752523433  2.4696512499590528   F   F   F
 -4.3533273230609373 14.2425699770920922  2.4696512499590528   F   F   F
 -7.2555455384348546 14.2425699770920922  2.4696512499590528   F   F   F
 -5.8044364307478959 11.7291752752523433  2.4696512499590528   F   F   F
 -5.7984698469453582 13.3993304649929712  4.8450139576720819   T   T   T
 -4.3421628885046522 10.8873532013053573  4.8530057998317178   T   T   T
 -1.4457654331203014 10.8892472951707653  4.8490771971587776   T   T   T
 -2.9047666879586993 13.4149791153321374  4.8572906990724007   T   T   T
  5.7964088687348010 -0.0251232909286526  7.2720057698220284   T   T   T
 -1.4587416993621611 12.5733138531920616  7.2626933415975001   T   T   T
 -4.3498182054635102 12.5490474925158093  7.2732599237504658   T   T   T
 -2.9004766981552819 10.0566001219960288  7.2756848907101643   T   T   T
  5.8044364307479590  0.0000000000000000  0.0999999999999934   F   F   F
  4.3533273230610003  2.5133947018397498  0.0999999999999934   F   F   F
  7.2555455384349177  2.5133947018397498  0.0999999999999934   F   F   F
  8.7066546461218763  0.0000000000000000  0.0999999999999934   F   F   F
  8.7066546461218763  1.6755964678932382  2.4696512499590528   F   F   F
  7.2555455384349168  4.1889911697329882  2.4696512499590528   F   F   F
  4.3533273230608751  4.1889911697329882  2.4696512499590528   F   F   F
  5.8044364307478338  1.6755964678932382  2.4696512499590528   F   F   F
  5.7911186135137909  3.3595435458636382  4.8467216449292927   T   T   T
  7.2435934053267692  0.8587988265029478  4.8783521316106517   T   T   T
 10.1479744318781631  0.8443274383234423  4.8552929001180090   T   T   T
  8.6761217202701335  3.3481511640231147  4.8779915624384760   T   T   T
  8.7282103303892722  5.0261739262585943  7.2428023450990269   T   T   T
 10.1506306140436493  2.5141677958453212  7.2573018330680821   T   T   T
  7.2209424054904243  2.5337590782527979  7.3124706178075920   T   T   T
  8.6990769155799139  0.0128478886295867  7.2573730109351509   T   T   T
  2.9022182153739804  5.0267894036796061  0.0999999999999934   F   F   F
  1.4511091076870217  7.5401841055193559  0.0999999999999934   F   F   F
  4.3533273230609391  7.5401841055193559  0.0999999999999934   F   F   F
  5.8044364307478977  5.0267894036796061  0.0999999999999934   F   F   F
  5.8044364307479590  6.7023858715727380  2.4696512499590528   F   F   F
  4.3533273230609391  9.2157805734125944  2.4696512499590528   F   F   F
  1.4511091076868972  9.2157805734125944  2.4696512499590528   F   F   F
  2.9022182153739169  6.7023858715727380  2.4696512499590528   F   F   F
  2.8932231232572234  8.3874578168486842  4.8528390119328249   T   T   T
  4.3231253416283888  5.8561287296286784  4.8828366017639553   T   T   T
  7.2291127318468975  5.8714295856679026  4.8864522967862305   T   T   T
  5.8187321905510707  8.3871002478636232  4.8580689114494673   T   T   T
  5.8444514697336460 10.1165787709707491  7.2830225652683280   T   T   T
  7.2928156977960450  7.5548709745529612  7.2849399759490554   T   T   T
  4.4092336918208543  7.6129400656016468  7.1707547275724348   T   T   T
  5.7507511915722835  5.0250350323218269  7.2581879540785739   T   T   T
  0.0000000000000633 10.0535788073591057  0.0999999999999934   F   F   F
 -1.4511091076869571 12.5669735091989629  0.0999999999999934   F   F   F
  1.4511091076869602 12.5669735091989629  0.0999999999999934   F   F   F
  2.9022182153739804 10.0535788073591057  0.0999999999999934   F   F   F
  2.9022182153739804 11.7291752752523433  2.4696512499590528   F   F   F
  1.4511091076870219 14.2425699770920922  2.4696512499590528   F   F   F
 -1.4511091076870197 14.2425699770920922  2.4696512499590528   F   F   F
 -0.0000000000000613 11.7291752752523433  2.4696512499590528   F   F   F
 -0.0102950815108661 13.4126511538632851  4.8479049336576185   T   T   T
  1.4556860336131041 10.8944123551756089  4.8576416554326194   T   T   T
  4.3597940292737807 10.8805175655247304  4.8804802087975085   T   T   T
  2.8998948288150026 13.4083505794992313  4.8488389713678579   T   T   T
 11.5975749056069564  0.0218721321894379  7.2738235610766040   T   T   T
  4.3524359734573448 12.6250204599403126  7.2389227244212258   T   T   T
  1.4336683173206417 12.6151765283414825  7.2433237132979151   T   T   T
  2.9058943841217011 10.1279373510720969  7.2432395908744347   T   T   T
 11.6088728614957937  0.0000000000000000  0.0999999999999934   F   F   F
 10.1577637538088350  2.5133947018397498  0.0999999999999934   F   F   F
 13.0599819691828767  2.5133947018397498  0.0999999999999934   F   F   F
 14.5110910768698353  0.0000000000000000  0.0999999999999934   F   F   F
 14.5110910768697110  1.6755964678932382  2.4696512499590528   F   F   F
 13.0599819691827523  4.1889911697329882  2.4696512499590528   F   F   F
 10.1577637538088350  4.1889911697329882  2.4696512499590528   F   F   F
 11.6088728614957937  1.6755964678932382  2.4696512499590528   F   F   F
 11.5990072470981396  3.3552445167969500  4.8522756746275055   T   T   T
 13.0550484368252135  0.8402688260651108  4.8562809980206669   T   T   T
 15.9642772062351881  0.8344746370169031  4.8449025405787314   T   T   T
 14.5042880106518552  3.3526899362033582  4.8453874478131356   T   T   T
 -2.9530461195630529  5.0132260299171616  7.2389386690614703   T   T   T
 -1.5043809991301647  2.4766301580731733  7.2335817049241591   T   T   T
 13.0339427321583337  2.5108850666258680  7.2726154702346388   T   T   T
 14.4952324227688898  0.0054185410481911  7.2684508277900113   T   T   T
  8.7066546461218142  5.0267894036796061  0.0999999999999934   F   F   F
  7.2555455384348564  7.5401841055193559  0.0999999999999934   F   F   F
 10.1577637538088972  7.5401841055193559  0.0999999999999934   F   F   F
 11.6088728614958558  5.0267894036796061  0.0999999999999934   F   F   F
 11.6088728614957937  6.7023858715727380  2.4696512499590528   F   F   F
 10.1577637538087728  9.2157805734125944  2.4696512499590528   F   F   F
  7.2555455384348564  9.2157805734125944  2.4696512499590528   F   F   F
  8.7066546461218763  6.7023858715727380  2.4696512499590528   F   F   F
  8.7035826327942694  8.3705368921542238  4.8682764968895986   T   T   T
 10.1461392173771454  5.8631540846040551  4.8535889112217667   T   T   T
 13.0543563866444625  5.8701247183575243  4.8485166951999963   T   T   T
 11.6192858774953223  8.3802801262381887  4.8489518185340010   T   T   T
 -5.7820349794320149 10.0538531147888737  7.2699961099601076   T   T   T
 -4.3443348415857894  7.5420683695443849  7.2722296877167185   T   T   T
 10.1987718055573762  7.5475559830161245  7.2490239698922334   T   T   T
 11.6046079879973085  5.0273389706937408  7.2687524041944966   T   T   T
  5.8044364307478977 10.0535788073591057  0.0999999999999934   F   F   F
  4.3533273230608778 12.5669735091989629  0.0999999999999934   F   F   F
  7.2555455384349195 12.5669735091989629  0.0999999999999934   F   F   F
  8.7066546461219403 10.0535788073591057  0.0999999999999934   F   F   F
  8.7066546461218142 11.7291752752523433  2.4696512499590528   F   F   F
  7.2555455384348564 14.2425699770920922  2.4696512499590528   F   F   F
  4.3533273230609391 14.2425699770920922  2.4696512499590528   F   F   F
  5.8044364307478977 11.7291752752523433  2.4696512499590528   F   F   F
  5.8084045849026920 13.4045412209002279  4.8483427340788197   T   T   T
  7.2539790277046858 10.8873234529562986  4.8691479027739764   T   T   T
 10.1689987618981696 10.8859149749272639  4.8477629120432493   T   T   T
  8.7176966076136342 13.3974441606703660  4.8438513624932540   T   T   T
 -0.0152428273531680 -0.0266386642713639  7.2445161233962230   T   T   T
 -7.2422173301009165 12.5604387663400949  7.2676822659793672   T   T   T
  7.2741781116513184 12.5963407772925784  7.2519976034036890   T   T   T
  8.7514882788527295 10.0753502366356535  7.2439698522731844   T   T   T
  5.5711427696937754 10.0606125096132715  9.6499308656058673   T   T   T
  7.6633161755430539  7.3111529301543321  9.7263549824693420   T   T   T
  5.2439590924275086  5.3551538860847598 10.1241064176402631   T   T   T
  2.1246992021551909 10.0223982352031573  9.6366680132317128   T   T   T
 -0.0702556215427708  6.3526403686438435  9.2253171116932009   T   T   T
  1.0813944620118188  2.4003504966735076  9.8824897186963874   T   T   T
  6.3327690758311119  1.4545294015150665 10.3010374782476344   T   T   T
  4.0781268369729000  3.0596977163857249 10.1214151279234379   T   T   T
  0.8583062884504346  7.7654158650728604 11.5878146915111220   T   T   T
  6.6913596394954338  6.7078313913684626 12.4558553523644004   T   T   T
  7.4643549057355418  4.0119207433631843 10.1716241554042170   T   T   T
  1.6906916322891186  4.7294088576391777 11.5592954959065697   T   T   T
  1.9677090496146752  8.2544111801663611 12.3930195162058787   T   T   T
  5.0237838733402409  9.4093146524516982 12.4675394772649604   T   T   T
  2.2927627563719577  3.6108283294596002 10.1275182140720617   T   T   T
  1.4538286163696099  5.9909653281498327 10.1210679274405049   T   T   T
  4.9253990931147786  8.9146497210102282 10.8181645150807864   T   T   T
  6.3328778352164674  6.8014148610287837 10.7670093626352479   T   T   T
  6.0091811081020552  3.0938208464197996  9.9128720443461233   T   T   T
  2.3956549017193134  8.5257951771718101 10.5103698169269020   T   T   T
  3.7499781100510656  6.5967186416526467  9.5844805376287141   T   T   T
Cartesian
  0.0000000000000000  0.0000000000000000  0.0000000000000000
  0.0000000000000000  0.0000000000000000  0.0000000000000000
  0.0000000000000000  0.0000000000000000  0.0000000000000000
  0.0000000000000000  0.0000000000000000  0.0000000000000000
  0.0000000000000000  0.0000000000000000  0.0000000000000000
  0.0000000000000000  0.0000000000000000  0.0000000000000000
  0.0000000000000000  0.0000000000000000  0.0000000000000000
  0.0000000000000000  0.0000000000000000  0.0000000000000000
  0.0000000000000000  0.0000000000000000  0.0000000000000000
  0.0000000000000000  0.0000000000000000  0.0000000000000000
  0.0000000000000000  0.0000000000000000  0.0000000000000000
  0.0000000000000000  0.0000000000000000  0.0000000000000000
  0.0000000000000000  0.0000000000000000  0.0000000000000000
  0.0000000000000000  0.0000000000000000  0.0000000000000000
  0.0000000000000000  0.0000000000000000  0.0000000000000000
  0.0000000000000000  0.0000000000000000  0.0000000000000000
  0.0000000000000000  0.0000000000000000  0.0000000000000000
  0.0000000000000000  0.0000000000000000  0.0000000000000000
  0.0000000000000000  0.0000000000000000  0.0000000000000000
  0.0000000000000000  0.0000000000000000  0.0000000000000000
  0.0000000000000000  0.0000000000000000  0.0000000000000000
  0.0000000000000000  0.0000000000000000  0.0000000000000000
  0.0000000000000000  0.0000000000000000  0.0000000000000000
  0.0000000000000000  0.0000000000000000  0.0000000000000000
  0.0000000000000000  0.0000000000000000  0.0000000000000000
  0.0000000000000000  0.0000000000000000  0.0000000000000000
  0.0000000000000000  0.0000000000000000  0.0000000000000000
  0.0000000000000000  0.0000000000000000  0.0000000000000000
  0.0000000000000000  0.0000000000000000  0.0000000000000000
  0.0000000000000000  0.0000000000000000  0.0000000000000000
  0.0000000000000000  0.0000000000000000  0.0000000000000000
  0.0000000000000000  0.0000000000000000  0.0000000000000000
  0.0000000000000000  0.0000000000000000  0.0000000000000000
  0.0000000000000000  0.0000000000000000  0.0000000000000000
  0.0000000000000000  0.0000000000000000  0.0000000000000000
  0.0000000000000000  0.0000000000000000  0.0000000000000000
  0.0000000000000000  0.0000000000000000  0.0000000000000000
  0.0000000000000000  0.0000000000000000  0.0000000000000000
  0.0000000000000000  0.0000000000000000  0.0000000000000000
  0.0000000000000000  0.0000000000000000  0.0000000000000000
  0.0000000000000000  0.0000000000000000  0.0000000000000000
  0.0000000000000000  0.0000000000000000  0.0000000000000000
  0.0000000000000000  0.0000000000000000  0.0000000000000000
  0.0000000000000000  0.0000000000000000  0.0000000000000000
  0.0000000000000000  0.0000000000000000  0.0000000000000000
  0.0000000000000000  0.0000000000000000  0.0000000000000000
  0.0000000000000000  0.0000000000000000  0.0000000000000000
  0.0000000000000000  0.0000000000000000  0.0000000000000000
  0.0000000000000000  0.0000000000000000  0.0000000000000000
  0.0000000000000000  0.0000000000000000  0.0000000000000000
  0.0000000000000000  0.0000000000000000  0.0000000000000000
  0.0000000000000000  0.0000000000000000  0.0000000000000000
  0.0000000000000000  0.0000000000000000  0.0000000000000000
  0.0000000000000000  0.0000000000000000  0.0000000000000000
  0.0000000000000000  0.0000000000000000  0.0000000000000000
  0.0000000000000000  0.0000000000000000  0.0000000000000000
  0.0000000000000000  0.0000000000000000  0.0000000000000000
  0.0000000000000000  0.0000000000000000  0.0000000000000000
  0.0000000000000000  0.0000000000000000  0.0000000000000000
  0.0000000000000000  0.0000000000000000  0.0000000000000000
  0.0000000000000000  0.0000000000000000  0.0000000000000000
  0.0000000000000000  0.0000000000000000  0.0000000000000000
  0.0000000000000000  0.0000000000000000  0.0000000000000000
  0.0000000000000000  0.0000000000000000  0.0000000000000000
  0.0000000000000000  0.0000000000000000  0.0000000000000000
  0.0000000000000000  0.0000000000000000  0.0000000000000000
  0.0000000000000000  0.0000000000000000  0.0000000000000000
  0.0000000000000000  0.0000000000000000  0.0000000000000000
  0.0000000000000000  0.0000000000000000  0.0000000000000000
  0.0000000000000000  0.0000000000000000  0.0000000000000000
  0.0000000000000000  0.0000000000000000  0.0000000000000000
  0.0000000000000000  0.0000000000000000  0.0000000000000000
  0.0000000000000000  0.0000000000000000  0.0000000000000000
  0.0000000000000000  0.0000000000000000  0.0000000000000000
  0.0000000000000000  0.0000000000000000  0.0000000000000000
  0.0000000000000000  0.0000000000000000  0.0000000000000000
  0.0000000000000000  0.0000000000000000  0.0000000000000000
  0.0000000000000000  0.0000000000000000  0.0000000000000000
  0.0000000000000000  0.0000000000000000  0.0000000000000000
  0.0000000000000000  0.0000000000000000  0.0000000000000000
  0.0000000000000000  0.0000000000000000  0.0000000000000000
  0.0000000000000000  0.0000000000000000  0.0000000000000000
  0.0000000000000000  0.0000000000000000  0.0000000000000000
  0.0000000000000000  0.0000000000000000  0.0000000000000000
  0.0000000000000000  0.0000000000000000  0.0000000000000000
  0.0000000000000000  0.0000000000000000  0.0000000000000000
  0.0000000000000000  0.0000000000000000  0.0000000000000000
  0.0000000000000000  0.0000000000000000  0.0000000000000000
  0.0000000000000000  0.0000000000000000  0.0000000000000000
  0.0000000000000000  0.0000000000000000  0.0000000000000000
  0.0000000000000000  0.0000000000000000  0.0000000000000000
  0.0000000000000000  0.0000000000000000  0.0000000000000000
  0.0000000000000000  0.0000000000000000  0.0000000000000000
  0.0000000000000000  0.0000000000000000  0.0000000000000000
  0.0000000000000000  0.0000000000000000  0.0000000000000000
  0.0000000000000000  0.0000000000000000  0.0000000000000000
  0.0000000000000000  0.0000000000000000  0.0000000000000000
  0.0000000000000000  0.0000000000000000  0.0000000000000000
  0.0000000000000000  0.0000000000000000  0.0000000000000000
  0.0000000000000000  0.0000000000000000  0.0000000000000000
  0.0000000000000000  0.0000000000000000  0.0000000000000000
  0.0000000000000000  0.0000000000000000  0.0000000000000000
  0.0000000000000000  0.0000000000000000  0.0000000000000000
  0.0000000000000000  0.0000000000000000  0.0000000000000000
  0.0000000000000000  0.0000000000000000  0.0000000000000000
  0.0000000000000000  0.0000000000000000  0.0000000000000000
  0.0000000000000000  0.0000000000000000  0.0000000000000000
  0.0000000000000000  0.0000000000000000  0.0000000000000000
  0.0000000000000000  0.0000000000000000  0.0000000000000000
  0.0000000000000000  0.0000000000000000  0.0000000000000000
  0.0000000000000000  0.0000000000000000  0.0000000000000000
  0.0000000000000000  0.0000000000000000  0.0000000000000000
  0.0000000000000000  0.0000000000000000  0.0000000000000000
  0.0000000000000000  0.0000000000000000  0.0000000000000000
  0.0000000000000000  0.0000000000000000  0.0000000000000000
  0.0000000000000000  0.0000000000000000  0.0000000000000000
  0.0000000000000000  0.0000000000000000  0.0000000000000000
  0.0000000000000000  0.0000000000000000  0.0000000000000000
  0.0000000000000000  0.0000000000000000  0.0000000000000000
  0.0000000000000000  0.0000000000000000  0.0000000000000000
  0.0000000000000000  0.0000000000000000  0.0000000000000000
  0.0000000000000000  0.0000000000000000  0.0000000000000000
  0.0000000000000000  0.0000000000000000  0.0000000000000000
  0.0000000000000000  0.0000000000000000  0.0000000000000000
  0.0000000000000000  0.0000000000000000  0.0000000000000000
  0.0000000000000000  0.0000000000000000  0.0000000000000000
  0.0000000000000000  0.0000000000000000  0.0000000000000000
  0.0000000000000000  0.0000000000000000  0.0000000000000000
  0.0000000000000000  0.0000000000000000  0.0000000000000000
  0.0000000000000000  0.0000000000000000  0.0000000000000000
  0.0000000000000000  0.0000000000000000  0.0000000000000000
  0.0000000000000000  0.0000000000000000  0.0000000000000000
  0.0000000000000000  0.0000000000000000  0.0000000000000000
  0.0000000000000000  0.0000000000000000  0.0000000000000000
  0.0000000000000000  0.0000000000000000  0.0000000000000000
  0.0000000000000000  0.0000000000000000  0.0000000000000000
  0.0000000000000000  0.0000000000000000  0.0000000000000000
  0.0000000000000000  0.0000000000000000  0.0000000000000000
  0.0000000000000000  0.0000000000000000  0.0000000000000000
  0.0000000000000000  0.0000000000000000  0.0000000000000000
  0.0000000000000000  0.0000000000000000  0.0000000000000000
  0.0000000000000000  0.0000000000000000  0.0000000000000000
  0.0000000000000000  0.0000000000000000  0.0000000000000000
  0.0000000000000000  0.0000000000000000  0.0000000000000000
  0.0000000000000000  0.0000000000000000  0.0000000000000000
  0.0000000000000000  0.0000000000000000  0.0000000000000000
  0.0000000000000000  0.0000000000000000  0.0000000000000000
  0.0000000000000000  0.0000000000000000  0.0000000000000000
  0.0000000000000000  0.0000000000000000  0.0000000000000000
  0.0000000000000000  0.0000000000000000  0.0000000000000000
  0.0000000000000000  0.0000000000000000  0.0000000000000000
  0.0000000000000000  0.0000000000000000  0.0000000000000000
  0.0000000000000000  0.0000000000000000  0.0000000000000000
  0.0000000000000000  0.0000000000000000  0.0000000000000000
  0.0000000000000000  0.0000000000000000  0.0000000000000000
  0.0000000000000000  0.0000000000000000  0.0000000000000000
  0.0000000000000000  0.0000000000000000  0.0000000000000000
  0.0000000000000000  0.0000000000000000  0.0000000000000000
  0.0000000000000000  0.0000000000000000  0.0000000000000000
  0.0000000000000000  0.0000000000000000  0.0000000000000000
  0.0000000000000000  0.0000000000000000  0.0000000000000000
  0.0000000000000000  0.0000000000000000  0.0000000000000000
  0.0000000000000000  0.0000000000000000  0.0000000000000000
  0.0000000000000000  0.0000000000000000  0.0000000000000000
  0.0000000000000000  0.0000000000000000  0.0000000000000000
