Al 
 1.0000000000000000
    14.3189130000000002    0.0000000000000000    0.0000000000000000
     0.0000000000000000   14.3189130000000002    0.0000000000000000
     0.0000000000000000    0.0000000000000000   20.0625000000000000
  51
Selective dynamics
Cartesian
  1.4318910000000031  1.4318910000000031 15.0000000000000018   F   F   F
  4.2956740000000018  1.4318910000000031 15.0000000000000018   F   F   F
  7.1594560000000014  1.4318910000000031 15.0000000000000018   F   F   F
 10.0232390000000002  1.4318910000000031 15.0000000000000018   F   F   F
 12.8870210000000007  1.4318910000000031 15.0000000000000018   F   F   F
  1.4318910000000031  4.2956740000000018 15.0000000000000018   F   F   F
  4.2956740000000018  4.2956740000000018 15.0000000000000018   F   F   F
  7.1594560000000014  4.2956740000000018 15.0000000000000018   F   F   F
 10.0232390000000002  4.2956740000000018 15.0000000000000018   F   F   F
 12.8870210000000007  4.2956740000000018 15.0000000000000018   F   F   F
  1.4318910000000031  7.1594560000000014 15.0000000000000018   F   F   F
  4.2956740000000018  7.1594560000000014 15.0000000000000018   F   F   F
  7.1594560000000014  7.1594560000000014 15.0000000000000018   F   F   F
 10.0232390000000002  7.1594560000000014 15.0000000000000018   F   F   F
 12.8870210000000007  7.1594560000000014 15.0000000000000018   F   F   F
  1.4318910000000031 10.0232390000000002 15.0000000000000018   F   F   F
  4.2956740000000018 10.0232390000000002 15.0000000000000018   F   F   F
  7.1594560000000014 10.0232390000000002 15.0000000000000018   F   F   F
 10.0232390000000002 10.0232390000000002 15.0000000000000018   F   F   F
 12.8870210000000007 10.0232390000000002 15.0000000000000018   F   F   F
  1.4318910000000031 12.8870210000000007 15.0000000000000018   F   F   F
  4.2956740000000018 12.8870210000000007 15.0000000000000018   F   F   F
  7.1594560000000014 12.8870210000000007 15.0000000000000018   F   F   F
 10.0232390000000002 12.8870210000000007 15.0000000000000018   F   F   F
 12.8870210000000007 12.8870210000000007 15.0000000000000018   F   F   F
  0.0043843550561559  0.0002883786225523 17.1502849918718283   T   T   T
  2.8637674825288548  0.0000097307542799 17.1593804212625649   T   T   T
  5.7230756674578664 -0.0002407858224613 17.1502128387749195   T   T   T
  8.5911291427840890  0.0014465120442892 17.1581202767965380   T   T   T
 11.4553916399541631 -0.0015238556211134 17.1581863247821573   T   T   T
 -0.0027662457362045  2.8662236093115623 17.1548418240449685   T   T   T
  2.8639399057898447  2.8593429525004486 17.1502016567584192   T   T   T
  5.7297630481537283  2.8665638729390932 17.1547764406562173   T   T   T
  8.5939350256283671  2.8128832675088016 17.1502513262414347   T   T   T
 11.4549374040792120  2.8125964280706048 17.1475422020756092   T   T   T
  0.0509120383181046  5.7302947513179054 17.1502933782299998   T   T   T
  2.8624024164204811  5.7273729152101076 17.1581617523070875   T   T   T
  5.6766608743035762  5.7274005776545129 17.1473512233562317   T   T   T
  8.4944269789763798  5.6304559026594685 17.1195044521844650   T   T   T
 11.5518284715288235  5.6310138955109643 17.1191694806908039   T   T   T
  0.0512610533734521  8.5912540975990037 17.1476713967735783   T   T   T
  2.8653307240736274  8.5915956379154270 17.1581848205922398   T   T   T
  5.6767848934012912  8.5888338228672350 17.1501762850730017   T   T   T
 10.0231109844446156 10.0231109800000002 18.6774092040515463   T   T   T
 11.5515937072809738  8.6881374025006970 17.1194382441856519   T   T   T
 -0.0024462099487385 11.4523451646786878 17.1547479330192871   T   T   T
  2.8635052682878284 11.4595635149402177 17.1502004594252462   T   T   T
  5.7302730782227140 11.4528633635781247 17.1547272971935989   T   T   T
  8.5913903259777715 11.5061875486096721 17.1474023370204272   T   T   T
 11.4523842102170494 11.5060196100637455 17.1503806100531477   T   T   T
  8.4944687797598188  8.6879465136278817 17.1193592374061900   T   T   T
