Ag
 1.0000000000000000
    17.3524004103179017    0.0000000000000000    0.0000000000000000
     0.0000000000000000   15.0276195719747996    0.0000000000000000
     0.0000000000000000    0.0000000000000000   12.3613626009856006
 Ag 
  73
Selective dynamics
Cartesian
 17.3519860591601898  1.6646624613177332  1.2674161392609207   F   F   F
  2.8971185870756440  1.6633401840559601  1.2839403913000689   F   F   F
  5.7835345979547128  1.6660733488205259  1.2797833037518094   F   F   F
  8.6763869644603933  1.6713175171660357  1.2826657380641409   F   F   F
 11.5683676158757134  1.6667522807933577  1.2804492336188009   F   F   F
 14.4552506405447900  1.6640770520644770  1.2833557843326486   F   F   F
  1.4451850836480984  4.1665431424588935  1.2869790058543467   F   F   F
  4.3411352505084864  4.1684160218517201  1.2727092754489249   F   F   F
  7.2327337036314630  4.1712855846734485  1.2714849637612464   F   F   F
 10.1194219163489674  4.1719759488588348  1.2690171381559270   F   F   F
 13.0090454719434074  4.1696037534763724  1.2792549589911686   F   F   F
 15.9062288085694448  4.1674383168451126  1.2871926122637471   F   F   F
 17.3521242154967439  6.6684766520484589  1.3002920174906996   F   F   F
  2.8894191349654430  6.6722388997935713  1.2711753986761891   F   F   F
  5.7890283581129296  6.6773914740965408  1.3522302094586511   F   F   F
  8.6779475243402846  6.6632183380603660  1.3326153604953661   F   F   F
 11.5575302170112728  6.6814230071954990  1.3569710711774410   F   F   F
 14.4610018347400349  6.6726173558638795  1.2761647102278504   F   F   F
  1.4504204353434464  9.1837354720152931  1.2913301174418486   F   F   F
  4.3391570268301418  9.1833334335658101  1.3034187829848460   F   F   F
  7.2168189338170698  9.1856841403203244  1.3331467711577116   F   F   F
 10.1345728322021316  9.1830212924692507  1.3415917365885308   F   F   F
 13.0140799573655919  9.1827797588702413  1.2928461642549360   F   F   F
 15.9019026943627271  9.1852635116331793  1.2932739751851514   F   F   F
  0.0002039499994310 11.6870287115195861  1.2994831352422211   F   F   F
  2.8942310124095778 11.6896020609429243  1.2805424977353665   F   F   F
  5.7873950450380525 11.6866831670555467  1.2951119649593181   F   F   F
  8.6767216921271544 11.6966369187389443  1.3064271523394926   F   F   F
 11.5661680821143698 11.6872992516153626  1.2916970226557534   F   F   F
 14.4585661179929321 11.6897866894437037  1.2811352378816447   F   F   F
  1.4450530452603898 14.1966878024896204  1.2835180675712210   F   F   F
  4.3440154109998357 14.1956184818835460  1.2810087150688869   F   F   F
  7.2308513168671347 14.1931253355378839  1.2580596399689590   F   F   F
 10.1211173955461948 14.1942513838689059  1.2560936619380483   F   F   F
 13.0082062623537595 14.1960032608136544  1.2825220123402714   F   F   F
 15.9079851618173809 14.1969724231298056  1.2835248875784993   F   F   F
 17.3527560514064589  0.0026930249745247  3.8095647929689416   T   T   T
  2.8918448481908654 15.0272261237131541  3.8121365369732874   T   T   T
  5.7890061526344452  0.0019744851652646  3.7971856820305612   T   T   T
  8.6758318181639726  0.0004615004869131  3.7879390020011594   T   T   T
 11.5629635418046348  0.0029094121982980  3.7971822003364690   T   T   T
 14.4611821577699420  0.0014905254118792  3.8120205056211161   T   T   T
  1.4445647392727878  2.4978207871929663  3.8053784383211871   T   T   T
  4.3364770916029700  2.4965984214608112  3.8067338314519841   T   T   T
  7.2338531414575815  2.5123153917198819  3.8033561455365774   T   T   T
 10.1193834334563277  2.5135602091075584  3.8034392458877604   T   T   T
 13.0169408896068166  2.4984650308761043  3.8083632636304094   T   T   T
 15.9091926521470288  2.4987816465380712  3.8052295596941690   T   T   T
  0.0016069835073430  5.0006135380175820  3.8185366473955176   T   T   T
  2.8854757015535468  5.0011298010455132  3.7996817345324438   T   T   T
  5.7680772820577788  4.9897270257316642  3.8230563596935974   T   T   T
  8.6766614410309568  5.0258575920390234  3.8884821858441483   T   T   T
 11.5861820001360130  4.9920081683317479  3.8260135570203975   T   T   T
 14.4699137028270268  5.0023517279426724  3.8033280477557216   T   T   T
  1.4393684496687751  7.5125305832213742  3.8111206350605835   T   T   T
  4.3021263798129787  7.5151448265997542  3.8254021118808268   T   T   T
  7.1727435730020090  7.5038096083821788  3.7675038998749590   T   T   T
 10.1808869231498633  7.5036898812240214  3.7776984876007904   T   T   T
 13.0523128299008491  7.5168235801016055  3.8249366410527004   T   T   T
 15.9165617957691854  7.5136211814693628  3.8131627938436017   T   T   T
 17.3523526004898656 10.0234683942225651  3.8175314594364629   T   T   T
  2.8808761452114848 10.0282985291124174  3.8172340003368990   T   T   T
  5.7634789746587654 10.0327734810115530  3.8465182026460893   T   T   T
  8.6762849344594208  9.9997779302951191  3.9386168360806151   T   T   T
 11.5901702263197741 10.0335024181108761  3.8407289613376019   T   T   T
 14.4712785733822447 10.0293861368947876  3.8151775231366178   T   T   T
  1.4450041946560550 12.5308135025334160  3.8118974914338009   T   T   T
  4.3353058814402452 12.5323596283957741  3.8111034460096724   T   T   T
  7.2325052845522100 12.5209820283623152  3.8078636529580039   T   T   T
 10.1202526600019880 12.5212104783058500  3.8063832840578349   T   T   T
 13.0166557123195901 12.5350188501948114  3.8111412462706982   T   T   T
 15.9071353812406961 12.5313991202493433  3.8117104523147569   T   T   T
  8.6688781131222630  7.9006024697357180  6.0339245374299422   T   T   T
