Ag
    1.000000000000000     
  17.3524004103179017   0.0000000000000000   0.0000000000000000
   0.0000000000000000  15.0276195719747996   0.0000000000000000
   0.0000000000000000   0.0000000000000000  12.3613626009856006
Ag
73  
Selective dynamics
Direct
  0.9999761213925500  0.1107735295896220  0.1025304555955560 F F F
  0.1669577994150590  0.1106855397882140  0.1038672218221070 F F F
  0.3332988209813190  0.1108674158831920  0.1035309249523810 F F F
  0.5000107627358190  0.1112163845485480  0.1037641059054340 F F F
  0.6666724684958890  0.1109125948265090  0.1035847968343480 F F F
  0.8330404035599340  0.1107345740351210  0.1038199287374940 F F F
  0.0832844476542149  0.2772590244584800  0.1041130373241970 F F F
  0.2501749122805630  0.2773836536044240  0.1029586556539850 F F F
  0.4168145923679130  0.2775746061906260  0.1028596122291460 F F F
  0.5831713006306530  0.2776205458806800  0.1026599719722440 F F F
  0.7496971695171410  0.2774626901823040  0.1034881833244800 F F F
  0.9166587003785051  0.2773185930669300  0.1041303174911410 F F F
  0.9999840831922600  0.4437480347509320  0.1051900230955950 F F F
  0.1665140883475330  0.4439983902864240  0.1028345692710960 F F F
  0.3336154204158820  0.4443412639051160  0.1093916789845510 F F F
  0.5001006961077440  0.4433981247759750  0.1078048920261520 F F F
  0.6660479209630880  0.4446095388025240  0.1097752015679280 F F F
  0.8333718386386120  0.4440235743196300  0.1032381907578780 F F F
  0.0835861552895594  0.6111237663443490  0.1044650302013540 F F F
  0.2500609093972980  0.6110970130420340  0.1054429697645890 F F F
  0.4158974414586400  0.6112534387981730  0.1078478816770100 F F F
  0.5840444314652870  0.6110762418816340  0.1085310559922870 F F F
  0.7499873014471991  0.6110601692363390  0.1045876741898870 F F F
  0.9164093911126731  0.6112254484245060  0.1046222829093320 F F F
  0.0000117534170840  0.7777032586927390  0.1051245867618680 F F F
  0.1667913916214520  0.7778745000134960  0.1035923416430860 F F F
  0.3335212943563020  0.7776802647340230  0.1047709711918050 F F F
  0.5000300527279150  0.7783426285658810  0.1056863385137920 F F F
  0.6665457117527680  0.7777212615503760  0.1044947118170260 F F F
  0.8332314709263930  0.7778867859580459  0.1036402926793440 F F F
  0.0832768384252560  0.9447063611435310  0.1038330570020560 F F F
  0.2503408928033290  0.9446352041248860  0.1036300573341930 F F F
  0.4167061124619740  0.9444692998488480  0.1017735407153780 F F F
  0.5832690092563840  0.9445442317650860  0.1016144985373940 F F F
  0.7496488067794330  0.9446608089073510  0.1037524788924170 F F F
  0.9167599171097010  0.9447253009788670  0.1038336087217570 F F F
  0.9999884525519110  0.0001673396604147  0.2847786604410490 T T T
  0.1667795852172770  0.9999633489467000  0.2852605432861990 T T T
  0.3337512992806990  0.0002768259289354  0.2853277696791490 T T T
  0.4998944920615140  0.0002554610571366  0.2844346245914550 T T T
  0.6660539677362110  0.0003963497365547  0.2852431457769600 T T T
  0.8331774289147870  0.0000908453169330  0.2852508360672700 T T T
  0.0833756045124474  0.1665580503090500  0.2851071657962050 T T T
  0.2501300619420160  0.1664685379159890  0.2857824543731270 T T T
  0.4170179738965700  0.1673606976567610  0.2854144037772950 T T T
  0.5831127438235481  0.1674704929076110  0.2853132536932530 T T T
  0.7501113171613411  0.1664652111305360  0.2858652891060840 T T T
  0.9168145679427721  0.1665987874840700  0.2854449484746060 T T T
  0.0001660100185106  0.3329481563560610  0.2863092983158990 T T T
  0.1664910750379820  0.3330922778690350  0.2851909401141550 T T T
  0.3330399757266350  0.3319177062169700  0.2865628872223170 T T T
  0.5002271072681520  0.3336863398535850  0.2894564081496680 T T T
  0.6672651680124700  0.3320226405539730  0.2868487750460820 T T T
  0.8337798526281260  0.3331953060314920  0.2854335594279010 T T T
  0.0830338428775335  0.5000386471517690  0.2864366458652510 T T T
  0.2478328265276990  0.5002397287255680  0.2867207673012970 T T T
  0.4120739942552090  0.4999366346119420  0.2893208551664590 T T T
  0.5880907399428710  0.5001226463022380  0.2899744151622840 T T T
  0.7523526407774240  0.5005365987660180  0.2866698899370090 T T T
  0.9171517922092960  0.5001079867675460  0.2865596682655540 T T T
  0.9999203916344040  0.6665458171001150  0.2864215398222430 T T T
  0.1658559151919260  0.6671913027881470  0.2866750787425900 T T T
  0.3322470038729290  0.6678794325329210  0.2878445836349500 T T T
  0.4999724876667100  0.6688994765871999  0.2904028392390790 T T T
  0.6678626506382130  0.6681714022591830  0.2876191601638280 T T T
  0.8340452413446680  0.6673066215050200  0.2865026101504780 T T T
  0.0833550720831582  0.8335424063718120  0.2857454371874940 T T T
  0.2497325256711700  0.8337848715045840  0.2861692849031600 T T T
  0.4164899017549220  0.8343735112053920  0.2861203534469110 T T T
  0.5833547507258030  0.8344373720368520  0.2857336242647430 T T T
  0.7500574061407190  0.8340425417898349  0.2861757329998720 T T T
  0.9164538039481370  0.8336355849264980  0.2857913437506530 T T T
  0.4997427533350770  0.5262425450345630  0.4511271593326070 T T T
