EDIFFG =-0.15
POTIM = 1
ISIF = 1
MD_ALGO = 0
NSW = 5000
IBRION=1
IOPT=0
MAXMOVE=0.2
POTENTIAL=OCP
OCPPOT=GemNet-dT-S2EFS-OC22
ICHAIN=0
IMAGES=3
